Ethanol.data - created by mBuild; units = real

2250 atoms
2000 bonds
3250 angles
3000 dihedrals
0 impropers

5 atom types
5 bond types
7 angle types
4 dihedral types

0.000000 30.000000 xlo xhi
0.000000 30.000000 ylo yhi
0.000000 30.000000 zlo zhi

Masses

1	12.010780	# opls_135
2	1.007947	# opls_140
3	15.999430	# opls_154
4	1.007947	# opls_155
5	12.010780	# opls_157

Pair Coeffs # lj
#	epsilon (kcal/mol)		sigma (Angstrom)
1	0.06600		3.50000		# opls_135
2	0.03000		2.50000		# opls_140
3	0.17000		3.12000		# opls_154
4	0.00000		10.00000		# opls_155
5	0.06600		3.50000		# opls_157

Bond Coeffs # harmonic
#	k(kcal/mol/angstrom^2)		req(angstrom)
1	340.0		1.09		# opls_135	opls_140
2	268.0		1.529		# opls_135	opls_157
3	340.0		1.09		# opls_140	opls_157
4	553.0		0.945		# opls_154	opls_155
5	320.0		1.41		# opls_154	opls_157

Angle Coeffs # harmonic
#	k(kcal/mol/rad^2)		theteq(deg)
1	33.0		107.80000	# opls_140	opls_135	opls_140
2	37.5		110.70000	# opls_140	opls_135	opls_157
3	55.0		108.50000	# opls_155	opls_154	opls_157
4	37.5		110.70000	# opls_135	opls_157	opls_140
5	50.0		109.50000	# opls_135	opls_157	opls_154
6	33.0		107.80000	# opls_140	opls_157	opls_140
7	35.0		109.50000	# opls_140	opls_157	opls_154

Dihedral Coeffs # opls
#	f1(kcal/mol)	f2(kcal/mol)	f3(kcal/mol)	f4(kcal/mol)
1	-0.00000	-0.00000		0.30000		-0.00000	# opls_140	opls_135	opls_157	opls_140
2	0.00000	-0.00000		0.46800		-0.00000	# opls_140	opls_135	opls_157	opls_154
3	-0.35600	-0.17400		0.49200		-0.00000	# opls_155	opls_154	opls_157	opls_135
4	0.00000	-0.00000		0.45000		-0.00000	# opls_155	opls_154	opls_157	opls_140

Atoms # full

1	1	1	-0.180000	12.513235	21.778290	3.049930
2	1	5	0.145000	12.175948	20.296462	3.160788
3	1	3	-0.683000	13.038179	19.538612	2.356791
4	1	2	0.060000	12.432035	22.108514	1.992623
5	1	2	0.060000	13.546906	21.962536	3.411912
6	1	2	0.060000	11.805614	22.370360	3.667740
7	1	2	0.060000	11.132581	20.135028	2.816678
8	1	2	0.060000	12.243452	19.969513	4.223238
9	1	4	0.418000	13.904353	19.487060	2.839451
10	2	1	-0.180000	9.474682	22.429848	10.490504
11	2	5	0.145000	9.996087	22.465738	11.921837
12	2	3	-0.683000	9.132040	21.763895	12.773325
13	2	2	0.060000	8.457220	22.872878	10.445406
14	2	2	0.060000	9.433329	21.381726	10.125559
15	2	2	0.060000	10.151285	23.013188	9.831045
16	2	2	0.060000	10.052316	23.521551	12.261222
17	2	2	0.060000	11.022069	22.034629	11.963767
18	2	4	0.418000	9.305747	20.798252	12.620903
19	3	1	-0.180000	7.441780	20.167369	21.547993
20	3	5	0.145000	7.379219	19.886712	20.051603
21	3	3	-0.683000	6.657431	20.893624	19.396362
22	3	2	0.060000	6.414799	20.229566	21.966301
23	3	2	0.060000	7.971044	21.125730	21.734746
24	3	2	0.060000	7.990330	19.348674	22.059651
25	3	2	0.060000	6.867930	18.915045	19.885675
26	3	2	0.060000	8.409441	19.810068	19.635645
27	3	4	0.418000	7.260852	21.679522	19.332163
28	4	1	-0.180000	14.598916	13.624526	2.998638
29	4	5	0.145000	15.981484	13.370600	3.586763
30	4	3	-0.683000	16.710748	12.503755	2.761570
31	4	2	0.060000	14.052938	12.664304	2.882791
32	4	2	0.060000	14.690460	14.114821	2.006325
33	4	2	0.060000	14.020665	14.288516	3.675178
34	4	2	0.060000	15.869788	12.901800	4.587182
35	4	2	0.060000	16.522761	14.335242	3.716141
36	4	4	0.418000	17.021542	13.042824	1.987821
37	5	1	-0.180000	26.239164	14.056730	27.134262
38	5	5	0.145000	27.353121	13.018481	27.079458
39	5	3	-0.683000	26.813132	11.727622	27.000170
40	5	2	0.060000	25.584794	13.866178	28.011205
41	5	2	0.060000	25.629656	14.011840	26.206933
42	5	2	0.060000	26.678448	15.072365	27.226338
43	5	2	0.060000	27.964998	13.093609	28.003064
44	5	2	0.060000	28.017246	13.218874	26.208233
45	5	4	0.418000	26.507081	11.604966	26.063600
46	6	1	-0.180000	15.758514	17.811348	19.825614
47	6	5	0.145000	16.947892	18.734899	20.058638
48	6	3	-0.683000	16.598992	20.061406	19.770819
49	6	2	0.060000	15.415328	17.891954	18.772398
50	6	2	0.060000	14.923287	18.086111	20.504109
51	6	2	0.060000	16.055150	16.760739	20.028567
52	6	2	0.060000	17.779959	18.431058	19.388989
53	6	2	0.060000	17.300538	18.642698	21.110965
54	6	4	0.418000	16.059924	20.386180	20.538804
55	7	1	-0.180000	20.432688	17.638660	26.440993
56	7	5	0.145000	19.308994	16.760737	25.903938
57	7	3	-0.683000	19.819472	15.534479	25.456843
58	7	2	0.060000	21.191728	17.811426	25.648813
59	7	2	0.060000	20.917870	17.147779	27.311101
60	7	2	0.060000	20.020545	18.617557	26.764818
61	7	2	0.060000	18.821334	17.277185	25.050383
62	7	2	0.060000	18.541125	16.599959	26.694368
63	7	4	0.418000	20.001636	14.990409	26.267200
64	8	1	-0.180000	22.766507	23.776310	18.161475
65	8	5	0.145000	22.629908	24.921671	17.165806
66	8	3	-0.683000	21.947820	24.492352	16.019233
67	8	2	0.060000	23.310291	22.928556	17.693341
68	8	2	0.060000	21.762111	23.431294	18.486449
69	8	2	0.060000	23.333476	24.120312	19.052077
70	8	2	0.060000	23.642610	25.268277	16.870196
71	8	2	0.060000	22.097367	25.776811	17.640556
72	8	4	0.418000	20.986013	24.446620	16.261535
73	9	1	-0.180000	23.370705	13.494274	10.919601
74	9	5	0.145000	22.769669	13.565028	12.318034
75	9	3	-0.683000	23.355456	14.607924	13.048384
76	9	2	0.060000	24.468592	13.339710	10.985137
77	9	2	0.060000	23.166637	14.436587	10.368369
78	9	2	0.060000	22.920187	12.646873	10.361114
79	9	2	0.060000	22.963337	12.607060	12.845172
80	9	2	0.060000	21.666906	13.705463	12.251358
81	9	4	0.418000	22.949594	15.450656	12.715286
82	10	1	-0.180000	20.389708	25.931384	6.977824
83	10	5	0.145000	19.767666	27.300038	6.729397
84	10	3	-0.683000	18.777439	27.213561	5.741388
85	10	2	0.060000	20.828084	25.536653	6.036786
86	10	2	0.060000	19.618209	25.222836	7.346881
87	10	2	0.060000	21.191988	26.017864	7.740603
88	10	2	0.060000	20.557184	28.000123	6.383524
89	10	2	0.060000	19.341174	27.701531	7.676583
90	10	4	0.418000	17.979467	26.810815	6.173720
91	11	1	-0.180000	22.190180	14.764168	27.356178
92	11	5	0.145000	22.046589	13.274238	27.070948
93	11	3	-0.683000	23.078010	12.837371	26.228624
94	11	2	0.060000	22.169560	15.336988	26.404868
95	11	2	0.060000	23.148898	14.961634	27.880887
96	11	2	0.060000	21.351871	15.104409	27.999946
97	11	2	0.060000	21.073477	13.093236	26.567582
98	11	2	0.060000	22.052758	12.701825	28.026227
99	11	4	0.418000	23.891517	12.759900	26.792610
100	12	1	-0.180000	21.902071	13.505587	16.635006
101	12	5	0.145000	22.520704	14.069915	15.361942
102	12	3	-0.683000	23.834743	13.606431	15.211358
103	12	2	0.060000	22.510286	13.800566	17.516255
104	12	2	0.060000	21.855176	12.397443	16.577797
105	12	2	0.060000	20.872466	13.902593	16.758550
106	12	2	0.060000	22.538171	15.178292	15.427382
107	12	2	0.060000	21.902307	13.785935	14.480357
108	12	4	0.418000	23.770095	12.668615	14.891674
109	13	1	-0.180000	23.626409	9.607124	5.755517
110	13	5	0.145000	23.736263	8.149791	5.324266
111	13	3	-0.683000	25.038968	7.865935	4.892324
112	13	2	0.060000	23.898566	10.274994	4.910876
113	13	2	0.060000	24.306608	9.804275	6.611038
114	13	2	0.060000	22.583809	9.827426	6.067630
115	13	2	0.060000	23.033436	7.965880	4.484446
116	13	2	0.060000	23.449230	7.481054	6.167270
117	13	4	0.418000	25.596037	7.777454	5.709465
118	14	1	-0.180000	4.359192	18.002443	6.296061
119	14	5	0.145000	3.074545	18.044867	5.477680
120	14	3	-0.683000	3.147380	19.053834	4.507695
121	14	2	0.060000	4.531179	18.984882	6.784705
122	14	2	0.060000	5.222573	17.765006	5.639059
123	14	2	0.060000	4.278173	17.219624	7.079383
124	14	2	0.060000	2.220464	18.260385	6.153834
125	14	2	0.060000	2.895189	17.055057	4.999811
126	14	4	0.418000	3.726081	18.706342	3.779527
127	15	1	-0.180000	2.911256	18.300878	9.305858
128	15	5	0.145000	2.891561	16.791436	9.513375
129	15	3	-0.683000	2.908524	16.487006	10.881303
130	15	2	0.060000	3.816004	18.737836	9.779183
131	15	2	0.060000	2.005589	18.759838	9.755944
132	15	2	0.060000	2.927139	18.529034	8.219278
133	15	2	0.060000	3.791544	16.347925	9.037545
134	15	2	0.060000	1.991631	16.352264	9.026028
135	15	4	0.418000	1.990249	16.653111	11.220500
136	16	1	-0.180000	7.025859	16.433764	3.240789
137	16	5	0.145000	8.473090	15.966151	3.334203
138	16	3	-0.683000	9.340714	16.973973	2.891808
139	16	2	0.060000	6.782283	16.709088	2.192741
140	16	2	0.060000	6.866673	17.315750	3.896697
141	16	2	0.060000	6.347100	15.617361	3.565960
142	16	2	0.060000	8.607556	15.071197	2.690726
143	16	2	0.060000	8.712248	15.676506	4.382613
144	16	4	0.418000	9.397093	17.641790	3.624417
145	17	1	-0.180000	19.279591	21.873495	25.332871
146	17	5	0.145000	18.839942	22.613485	26.590245
147	17	3	-0.683000	18.702435	21.718418	27.659888
148	17	2	0.060000	18.538037	21.087791	25.075375
149	17	2	0.060000	20.271329	21.400731	25.495370
150	17	2	0.060000	19.356718	22.587620	24.486089
151	17	2	0.060000	17.858830	23.098214	26.401713
152	17	2	0.060000	19.576542	23.410695	26.839506
153	17	4	0.418000	19.620543	21.509346	27.974915
154	18	1	-0.180000	19.678481	5.356422	16.778187
155	18	5	0.145000	20.496578	6.400601	16.028340
156	18	3	-0.683000	21.684949	5.835113	15.546478
157	18	2	0.060000	20.270586	4.944276	17.622632
158	18	2	0.060000	19.394831	4.529675	16.092996
159	18	2	0.060000	18.754335	5.822867	17.179865
160	18	2	0.060000	20.751043	7.229232	16.722389
161	18	2	0.060000	19.896994	6.823814	15.190699
162	18	4	0.418000	21.440376	5.297960	14.748027
163	19	1	-0.180000	7.194644	24.157759	21.765323
164	19	5	0.145000	6.043644	23.159271	21.774587
165	19	3	-0.683000	4.850768	23.793629	22.147182
166	19	2	0.060000	7.308263	24.616150	22.770563
167	19	2	0.060000	7.000490	24.957062	21.019083
168	19	2	0.060000	8.138660	23.638114	21.497429
169	19	2	0.060000	6.265659	22.356335	22.508814
170	19	2	0.060000	5.939668	22.689437	20.770248
171	19	4	0.418000	4.541610	24.305148	21.354311
172	20	1	-0.180000	20.077795	10.591683	27.351670
173	20	5	0.145000	18.849560	10.805301	26.475502
174	20	3	-0.683000	18.997846	11.964724	25.702236
175	20	2	0.060000	20.230091	11.470531	28.013464
176	20	2	0.060000	20.978906	10.451013	26.717899
177	20	2	0.060000	19.936296	9.687396	27.980325
178	20	2	0.060000	17.956210	10.920857	27.124856
179	20	2	0.060000	18.689119	9.917507	25.822561
180	20	4	0.418000	19.618128	11.734723	24.961815
181	21	1	-0.180000	3.634441	14.482711	5.479753
182	21	5	0.145000	2.750401	13.765346	6.492534
183	21	3	-0.683000	3.530788	13.219429	7.520719
184	21	2	0.060000	4.377554	13.774859	5.055174
185	21	2	0.060000	4.169347	15.324348	5.968607
186	21	2	0.060000	3.008574	14.885389	4.655676
187	21	2	0.060000	2.206839	12.942866	5.981503
188	21	2	0.060000	1.996214	14.472185	6.907061
189	21	4	0.418000	3.784172	13.973040	8.115481
190	22	1	-0.180000	6.104058	3.959421	15.694240
191	22	5	0.145000	6.318411	2.452783	15.771433
192	22	3	-0.683000	7.621668	2.166993	16.200428
193	22	2	0.060000	6.839675	4.412733	14.996448
194	22	2	0.060000	6.226153	4.414307	16.700037
195	22	2	0.060000	5.078657	4.173098	15.325650
196	22	2	0.060000	6.169878	2.012935	14.762692
197	22	2	0.060000	5.571152	1.997123	16.460077
198	22	4	0.418000	7.639639	2.327436	17.180127
199	23	1	-0.180000	14.457387	11.241000	12.699610
200	23	5	0.145000	15.948779	11.316274	12.396380
201	23	3	-0.683000	16.336268	12.645936	12.181802
202	23	2	0.060000	13.876051	11.672976	11.857598
203	23	2	0.060000	14.227976	11.804228	13.628911
204	23	2	0.060000	14.156845	10.181147	12.838711
205	23	2	0.060000	16.162522	10.729326	11.478288
206	23	2	0.060000	16.530314	10.869781	13.234659
207	23	4	0.418000	16.387655	13.074478	13.075997
208	24	1	-0.180000	12.935237	20.120671	21.201267
209	24	5	0.145000	12.503319	19.355536	19.956325
210	24	3	-0.683000	13.093255	19.911545	18.813075
211	24	2	0.060000	12.647733	21.189514	21.109318
212	24	2	0.060000	14.035852	20.048210	21.331075
213	24	2	0.060000	12.439032	19.689732	22.096273
214	24	2	0.060000	11.399304	19.419701	19.855730
215	24	2	0.060000	12.778974	18.281097	20.055555
216	24	4	0.418000	14.037822	19.605634	18.803708
217	25	1	-0.180000	14.591488	26.003435	12.522969
218	25	5	0.145000	14.664049	27.519251	12.660454
219	25	3	-0.683000	13.435139	28.099362	12.317752
220	25	2	0.060000	14.321204	25.728774	11.481313
221	25	2	0.060000	13.829051	25.593195	13.218561
222	25	2	0.060000	15.578389	25.557753	12.768644
223	25	2	0.060000	15.446340	27.908754	11.975331
224	25	2	0.060000	14.949302	27.793476	13.701455
225	25	4	0.418000	12.826720	27.951552	13.088371
226	26	1	-0.180000	6.443362	14.778642	21.591290
227	26	5	0.145000	6.822199	13.398461	22.114212
228	26	3	-0.683000	6.725880	12.445876	21.090740
229	26	2	0.060000	5.408986	14.761240	21.187184
230	26	2	0.060000	7.144535	15.087887	20.787438
231	26	2	0.060000	6.495154	15.518931	22.417276
232	26	2	0.060000	6.125518	13.116254	22.931574
233	26	2	0.060000	7.854125	13.420292	22.532429
234	26	4	0.418000	7.526388	12.565242	20.515576
235	27	1	-0.180000	22.186825	21.440809	3.364707
236	27	5	0.145000	23.416273	20.586000	3.082527
237	27	3	-0.683000	23.145129	19.237705	3.352291
238	27	2	0.060000	21.876611	21.322305	4.424548
239	27	2	0.060000	21.349290	21.135123	2.702479
240	27	2	0.060000	22.422511	22.509276	3.175519
241	27	2	0.060000	24.248895	20.920718	3.736584
242	27	2	0.060000	23.735347	20.716564	2.023567
243	27	4	0.418000	22.603467	18.899437	2.591995
244	28	1	-0.180000	4.344906	21.495025	5.731676
245	28	5	0.145000	2.886526	21.251888	6.100292
246	28	3	-0.683000	2.338376	22.393600	6.700471
247	28	2	0.060000	4.927014	21.761437	6.639262
248	28	2	0.060000	4.419356	22.321958	4.994049
249	28	2	0.060000	4.776177	20.574854	5.284178
250	28	2	0.060000	2.829904	20.407985	6.819810
251	28	2	0.060000	2.306516	20.970644	5.192138
252	28	4	0.418000	2.156948	23.039669	5.968656
253	29	1	-0.180000	5.684714	9.458168	24.235127
254	29	5	0.145000	5.015027	9.658614	22.881167
255	29	3	-0.683000	3.654363	9.331438	22.956933
256	29	2	0.060000	5.567151	8.404172	24.564989
257	29	2	0.060000	5.226544	10.130808	24.990832
258	29	2	0.060000	6.767226	9.692234	24.155477
259	29	2	0.060000	5.500758	8.995720	22.134359
260	29	2	0.060000	5.145882	10.712044	22.544398
261	29	4	0.418000	3.204655	10.090962	23.411642
262	30	1	-0.180000	24.264465	26.973464	11.484801
263	30	5	0.145000	23.089729	26.035770	11.734980
264	30	3	-0.683000	21.956275	26.477673	11.039139
265	30	2	0.060000	24.002680	28.004374	11.804537
266	30	2	0.060000	24.523828	26.980600	10.404924
267	30	2	0.060000	25.147426	26.629854	12.063830
268	30	2	0.060000	22.859852	26.023863	12.821305
269	30	2	0.060000	23.358103	24.999548	11.427618
270	30	4	0.418000	22.091643	26.227321	10.087890
271	31	1	-0.180000	27.045232	4.050681	7.998212
272	31	5	0.145000	27.076919	2.618191	7.479720
273	31	3	-0.683000	25.853665	1.981737	7.730251
274	31	2	0.060000	26.832775	4.055711	9.088338
275	31	2	0.060000	26.258876	4.630430	7.470017
276	31	2	0.060000	28.028593	4.534803	7.820477
277	31	2	0.060000	27.883051	2.060966	8.001963
278	31	2	0.060000	27.304366	2.613279	6.389538
279	31	4	0.418000	25.211522	2.325113	7.055255
280	32	1	-0.180000	2.613071	20.532286	21.059117
281	32	5	0.145000	3.643814	21.644827	20.911851
282	32	3	-0.683000	3.006805	22.874109	20.694421
283	32	2	0.060000	1.982518	20.475117	20.146608
284	32	2	0.060000	1.964764	20.726771	21.939645
285	32	2	0.060000	3.129843	19.559856	21.201561
286	32	2	0.060000	4.296572	21.421916	20.041620
287	32	2	0.060000	4.285049	21.691977	21.821162
288	32	4	0.418000	2.654727	23.170904	21.574096
289	33	1	-0.180000	21.633861	20.048642	11.809652
290	33	5	0.145000	21.040171	18.702355	12.205770
291	33	3	-0.683000	21.801794	17.656202	11.667545
292	33	2	0.060000	21.669591	20.137507	10.703142
293	33	2	0.060000	22.662158	20.147144	12.217521
294	33	2	0.060000	21.005976	20.868897	12.216967
295	33	2	0.060000	20.005289	18.631365	11.809456
296	33	2	0.060000	20.991254	18.619946	13.315305
297	33	4	0.418000	22.617971	17.581720	12.228064
298	34	1	-0.180000	6.593402	5.287749	11.410427
299	34	5	0.145000	7.734057	4.836367	10.506532
300	34	3	-0.683000	7.379071	3.666966	9.820473
301	34	2	0.060000	6.342987	4.485031	12.136013
302	34	2	0.060000	5.694750	5.523642	10.801957
303	34	2	0.060000	6.896988	6.197491	11.970040
304	34	2	0.060000	8.629504	4.627395	11.129101
305	34	2	0.060000	7.994260	5.647227	9.788859
306	34	4	0.418000	6.766145	3.941790	9.089263
307	35	1	-0.180000	23.018608	20.740565	19.910192
308	35	5	0.145000	23.956195	21.274295	20.986262
309	35	3	-0.683000	25.063386	21.902803	20.400346
310	35	2	0.060000	23.558951	20.022851	19.257156
311	35	2	0.060000	22.631885	21.577843	19.291431
312	35	2	0.060000	22.161011	20.219767	20.385859
313	35	2	0.060000	24.314230	20.427058	21.608426
314	35	2	0.060000	23.409829	21.982762	21.649444
315	35	4	0.418000	24.750742	22.789817	20.082016
316	36	1	-0.180000	21.307698	8.919703	24.018208
317	36	5	0.145000	20.753920	9.937088	23.028196
318	36	3	-0.683000	19.378855	9.739076	22.843321
319	36	2	0.060000	21.120469	7.889132	23.648873
320	36	2	0.060000	20.821264	9.046961	25.008482
321	36	2	0.060000	22.402057	9.067718	24.134107
322	36	2	0.060000	21.267530	9.810150	22.051888
323	36	2	0.060000	20.954900	10.970237	23.392149
324	36	4	0.418000	18.927829	10.113805	23.644587
325	37	1	-0.180000	16.104186	26.017181	8.013388
326	37	5	0.145000	15.129128	27.043488	8.577144
327	37	3	-0.683000	13.807442	26.628618	8.364495
328	37	2	0.060000	15.922209	25.876862	6.926772
329	37	2	0.060000	15.977372	25.044240	8.533734
330	37	2	0.060000	17.146415	26.370400	8.161569
331	37	2	0.060000	15.286034	28.014482	8.061744
332	37	2	0.060000	15.321762	27.194348	9.663600
333	37	4	0.418000	13.619770	25.922754	9.037110
334	38	1	-0.180000	9.688487	18.529110	7.355440
335	38	5	0.145000	10.502751	19.742207	6.922732
336	38	3	-0.683000	9.721019	20.903478	6.990081
337	38	2	0.060000	8.793798	18.420700	6.706351
338	38	2	0.060000	9.362403	18.645033	8.410754
339	38	2	0.060000	10.308902	17.612184	7.270039
340	38	2	0.060000	10.839074	19.598321	5.874271
341	38	2	0.060000	11.407268	19.841776	7.564752
342	38	4	0.418000	9.662740	21.151187	7.949830
343	39	1	-0.180000	4.769093	17.687992	21.079065
344	39	5	0.145000	3.632010	16.673719	21.066577
345	39	3	-0.683000	2.395499	17.326145	21.164416
346	39	2	0.060000	4.731761	18.289366	22.012068
347	39	2	0.060000	4.685171	18.366207	20.203601
348	39	2	0.060000	5.743703	17.158133	21.030605
349	39	2	0.060000	3.745271	15.990850	21.934879
350	39	2	0.060000	3.678776	16.061388	20.137536
351	39	4	0.418000	2.205489	17.710157	20.268701
352	40	1	-0.180000	13.513685	23.941485	27.047140
353	40	5	0.145000	14.730801	23.055001	27.280896
354	40	3	-0.683000	14.339038	21.819509	27.814067
355	40	2	0.060000	12.968220	24.097665	28.001925
356	40	2	0.060000	12.831745	23.466869	26.310151
357	40	2	0.060000	13.838888	24.927117	26.652506
358	40	2	0.060000	15.411242	23.555504	28.001717
359	40	2	0.060000	15.285295	22.910786	26.325914
360	40	4	0.418000	13.965418	21.291015	27.061089
361	41	1	-0.180000	20.097242	4.695065	8.571361
362	41	5	0.145000	20.677462	6.102419	8.638927
363	41	3	-0.683000	20.705178	6.555311	9.964940
364	41	2	0.060000	19.070733	4.686394	8.995321
365	41	2	0.060000	20.735791	3.991013	9.145837
366	41	2	0.060000	20.053296	4.358797	7.514027
367	41	2	0.060000	20.039656	6.787007	8.040905
368	41	2	0.060000	21.701100	6.113211	8.200407
369	41	4	0.418000	21.472390	6.102663	10.403540
370	42	1	-0.180000	10.118113	5.366739	12.965155
371	42	5	0.145000	9.371086	4.429464	13.906075
372	42	3	-0.683000	8.331454	3.781671	13.225104
373	42	2	0.060000	9.417891	6.117725	12.541778
374	42	2	0.060000	10.578406	4.788275	12.136322
375	42	2	0.060000	10.919865	5.895513	13.522431
376	42	2	0.060000	8.937732	5.021583	14.739554
377	42	2	0.060000	10.076633	3.685844	14.341374
378	42	4	0.418000	8.752156	3.068878	12.676642
379	43	1	-0.180000	11.899342	4.144324	21.375380
380	43	5	0.145000	10.968757	2.938129	21.344246
381	43	3	-0.683000	11.376669	1.983099	22.285371
382	43	2	0.060000	12.941883	3.825633	21.163052
383	43	2	0.060000	11.861757	4.629680	22.373614
384	43	2	0.060000	11.583774	4.880355	20.606200
385	43	2	0.060000	11.001956	2.480159	20.333184
386	43	2	0.060000	9.921456	3.260568	21.542862
387	43	4	0.418000	11.086812	2.318304	23.173905
388	44	1	-0.180000	16.691285	5.815824	5.659916
389	44	5	0.145000	17.092871	6.015887	7.116133
390	44	3	-0.683000	16.228840	5.307289	7.962024
391	44	2	0.060000	15.645787	6.156518	5.503715
392	44	2	0.060000	16.770542	4.742397	5.386185
393	44	2	0.060000	17.364351	6.404785	5.001836
394	44	2	0.060000	17.029735	7.096274	7.364856
395	44	2	0.060000	18.146039	5.687563	7.268750
396	44	4	0.418000	16.497674	4.353015	7.907571
397	45	1	-0.180000	3.914110	20.906281	27.189837
398	45	5	0.145000	2.735691	19.946650	27.078926
399	45	3	-0.683000	3.189131	18.644555	26.827665
400	45	2	0.060000	4.509098	20.887532	26.252192
401	45	2	0.060000	4.564801	20.614821	28.041369
402	45	2	0.060000	3.541485	21.938411	27.359605
403	45	2	0.060000	2.084901	20.266753	26.238038
404	45	2	0.060000	2.131371	19.976818	28.013881
405	45	4	0.418000	3.532589	18.292194	27.690076
406	46	1	-0.180000	27.206564	8.309989	3.102286
407	46	5	0.145000	25.970910	9.099186	2.687325
408	46	3	-0.683000	25.054822	8.263179	2.034586
409	46	2	0.060000	27.682493	7.851849	2.209461
410	46	2	0.060000	26.925088	7.508702	3.817943
411	46	2	0.060000	27.936826	8.988266	3.591797
412	46	2	0.060000	26.274520	9.909066	1.990904
413	46	2	0.060000	25.502574	9.570206	3.581223
414	46	4	0.418000	24.606845	7.727215	2.740230
415	47	1	-0.180000	21.630960	15.891879	23.114201
416	47	5	0.145000	23.089187	15.670681	23.496967
417	47	3	-0.683000	23.753182	16.898913	23.618406
418	47	2	0.060000	21.569992	16.450887	22.156427
419	47	2	0.060000	21.111391	16.469290	23.907990
420	47	2	0.060000	21.123255	14.911894	22.992434
421	47	2	0.060000	23.585926	15.072967	22.703824
422	47	2	0.060000	23.149506	15.097501	24.449898
423	47	4	0.418000	23.472845	17.288447	24.487630
424	48	1	-0.180000	2.726118	12.643009	17.090952
425	48	5	0.145000	3.692569	11.523410	16.724434
426	48	3	-0.683000	4.652117	11.358033	17.732456
427	48	2	0.060000	3.283290	13.591869	17.241825
428	48	2	0.060000	2.181470	12.386732	18.024298
429	48	2	0.060000	1.989161	12.784086	16.272444
430	48	2	0.060000	4.210428	11.786354	15.777983
431	48	2	0.060000	3.131568	10.575677	16.559111
432	48	4	0.418000	4.204017	10.873333	18.474175
433	49	1	-0.180000	8.720565	9.183058	7.216807
434	49	5	0.145000	8.778691	10.002032	5.933153
435	49	3	-0.683000	10.077778	10.482697	5.719784
436	49	2	0.060000	9.039805	9.805434	8.079520
437	49	2	0.060000	9.388800	8.299621	7.136463
438	49	2	0.060000	7.681337	8.832536	7.390304
439	49	2	0.060000	8.088055	10.866934	6.022899
440	49	2	0.060000	8.444594	9.381622	5.070760
441	49	4	0.418000	10.611859	9.716929	5.381804
442	50	1	-0.180000	2.853665	19.175306	12.797028
443	50	5	0.145000	3.335635	19.742390	14.126685
444	50	3	-0.683000	4.435956	20.587014	13.926452
445	50	2	0.060000	3.675313	18.614964	12.302609
446	50	2	0.060000	2.519399	19.997963	12.129979
447	50	2	0.060000	2.001105	18.485595	12.971395
448	50	2	0.060000	3.643649	18.905190	14.787979
449	50	2	0.060000	2.507033	20.291744	14.628564
450	50	4	0.418000	4.076854	21.441417	13.570201
451	51	1	-0.180000	14.444952	21.364108	14.439468
452	51	5	0.145000	13.420226	21.064180	13.352341
453	51	3	-0.683000	13.975549	20.224894	12.376941
454	51	2	0.060000	15.342114	21.844027	13.994141
455	51	2	0.060000	14.747784	20.424453	14.948190
456	51	2	0.060000	14.003252	22.052611	15.190352
457	51	2	0.060000	13.112490	22.016405	12.871037
458	51	2	0.060000	12.515004	20.596259	13.801647
459	51	4	0.418000	13.990599	19.310743	12.764207
460	52	1	-0.180000	13.342993	10.440010	5.839544
461	52	5	0.145000	14.674033	9.963823	6.408266
462	52	3	-0.683000	15.630848	9.861011	5.389381
463	52	2	0.060000	12.989101	9.734178	5.058455
464	52	2	0.060000	13.458165	11.450641	5.393657
465	52	2	0.060000	12.585893	10.489460	6.650295
466	52	2	0.060000	14.534494	8.963391	6.869516
467	52	2	0.060000	15.021042	10.664239	7.201521
468	52	4	0.418000	15.927565	10.786069	5.184198
469	53	1	-0.180000	14.876638	17.457918	14.056840
470	53	5	0.145000	15.615272	16.488147	14.971077
471	53	3	-0.683000	16.655322	17.146156	15.641533
472	53	2	0.060000	15.582013	17.898314	13.320608
473	53	2	0.060000	14.417780	18.272819	14.655874
474	53	2	0.060000	14.074537	16.919162	13.509721
475	53	2	0.060000	16.047227	15.669106	14.358157
476	53	2	0.060000	14.904548	16.036062	15.699598
477	53	4	0.418000	16.234173	17.676929	16.367334
478	54	1	-0.180000	8.572282	9.622897	19.785833
479	54	5	0.145000	7.975077	9.993526	21.137811
480	54	3	-0.683000	8.065484	8.911519	22.023971
481	54	2	0.060000	8.041217	8.743383	19.363977
482	54	2	0.060000	9.650025	9.379517	19.898483
483	54	2	0.060000	8.468583	10.477167	19.084097
484	54	2	0.060000	6.904573	10.255617	21.002111
485	54	2	0.060000	8.498495	10.884333	21.553443
486	54	4	0.418000	9.008995	8.874102	22.330991
487	55	1	-0.180000	19.451425	3.046812	20.141997
488	55	5	0.145000	18.554029	3.660645	19.074404
489	55	3	-0.683000	18.930747	3.209248	17.802195
490	55	2	0.060000	20.511912	3.311948	19.945509
491	55	2	0.060000	19.344890	1.941325	20.140645
492	55	2	0.060000	19.162409	3.434118	21.141711
493	55	2	0.060000	18.656248	4.765923	19.106008
494	55	2	0.060000	17.489484	3.406464	19.280287
495	55	4	0.418000	18.582392	2.283572	17.714758
496	56	1	-0.180000	15.325615	6.579966	14.390951
497	56	5	0.145000	15.080963	8.077200	14.533424
498	56	3	-0.683000	13.724513	8.370446	14.337874
499	56	2	0.060000	15.005969	6.236715	13.384202
500	56	2	0.060000	14.754435	6.024593	15.164753
501	56	2	0.060000	16.407207	6.363706	14.518833
502	56	2	0.060000	15.677093	8.616823	13.767577
503	56	2	0.060000	15.415143	8.423274	15.537820
504	56	4	0.418000	13.253882	8.105882	15.171173
505	57	1	-0.180000	14.933681	2.848802	4.409800
506	57	5	0.145000	15.922960	2.931401	3.253785
507	57	3	-0.683000	15.241183	3.076811	2.037961
508	57	2	0.060000	14.243257	1.992044	4.258738
509	57	2	0.060000	14.342996	3.787083	4.474406
510	57	2	0.060000	15.483790	2.704498	5.363487
511	57	2	0.060000	16.519523	1.995455	3.219074
512	57	2	0.060000	16.624073	3.781849	3.413253
513	57	4	0.418000	14.943244	4.022800	1.990940
514	58	1	-0.180000	19.075714	16.854677	14.463623
515	58	5	0.145000	20.059116	16.231085	15.446434
516	58	3	-0.683000	21.211106	17.022288	15.551819
517	58	2	0.060000	19.552307	16.963205	13.466316
518	58	2	0.060000	18.755732	17.854402	14.826413
519	58	2	0.060000	18.180745	16.204628	14.366517
520	58	2	0.060000	20.349708	15.224139	15.079418
521	58	2	0.060000	19.575813	16.109226	16.442337
522	58	4	0.418000	20.970505	17.799675	16.120726
523	59	1	-0.180000	27.307876	4.480652	3.393631
524	59	5	0.145000	25.947371	4.367589	4.070467
525	59	3	-0.683000	25.095555	5.388148	3.626553
526	59	2	0.060000	27.759619	5.471606	3.611526
527	59	2	0.060000	27.198440	4.362648	2.294743
528	59	2	0.060000	27.982632	3.685372	3.774678
529	59	2	0.060000	26.079222	4.464832	5.168759
530	59	2	0.060000	25.501524	3.368265	3.863521
531	59	4	0.418000	24.785890	5.125411	2.720489
532	60	1	-0.180000	7.986630	8.154322	2.822581
533	60	5	0.145000	9.466845	7.810697	2.935496
534	60	3	-0.683000	9.630745	6.448919	3.223399
535	60	2	0.060000	7.464688	7.902781	3.770127
536	60	2	0.060000	7.525025	7.584231	1.988691
537	60	2	0.060000	7.868724	9.240343	2.623538
538	60	2	0.060000	9.915941	8.406282	3.758100
539	60	2	0.060000	9.992188	8.076659	1.990228
540	60	4	0.418000	9.471953	5.958267	2.374918
541	61	1	-0.180000	2.650250	8.066948	21.039729
542	61	5	0.145000	3.453269	8.876905	20.029285
543	61	3	-0.683000	2.594587	9.525587	19.131473
544	61	2	0.060000	2.019694	7.319740	20.512835
545	61	2	0.060000	1.998250	8.739605	21.636289
546	61	2	0.060000	3.341449	7.534826	21.726789
547	61	2	0.060000	4.115152	8.191694	19.458773
548	61	2	0.060000	4.096100	9.616025	20.559117
549	61	4	0.418000	2.214633	10.305157	19.614980
550	62	1	-0.180000	20.894125	7.444364	2.810267
551	62	5	0.145000	20.926814	6.210123	3.703265
552	62	3	-0.683000	20.565385	5.069981	2.972761
553	62	2	0.060000	19.878131	7.576477	2.381500
554	62	2	0.060000	21.628342	7.337089	1.983906
555	62	2	0.060000	21.153536	8.344524	3.406404
556	62	2	0.060000	20.204131	6.345080	4.535493
557	62	2	0.060000	21.941941	6.086587	4.144295
558	62	4	0.418000	21.354062	4.823870	2.422041
559	63	1	-0.180000	7.889395	4.621609	27.319176
560	63	5	0.145000	8.282838	6.069092	27.051106
561	63	3	-0.683000	7.219408	6.761268	26.455959
562	63	2	0.060000	7.599186	4.124472	26.369349
563	63	2	0.060000	7.034890	4.583308	28.027561
564	63	2	0.060000	8.748690	4.076392	27.763376
565	63	2	0.060000	9.151918	6.086928	26.360114
566	63	2	0.060000	8.587585	6.562666	28.001772
567	63	4	0.418000	6.569460	6.959899	27.179828
568	64	1	-0.180000	8.916327	23.058991	27.021116
569	64	5	0.145000	10.352150	22.561703	27.135053
570	64	3	-0.683000	10.387004	21.314275	27.772940
571	64	2	0.060000	8.460141	23.137787	28.030683
572	64	2	0.060000	8.317223	22.357042	26.403219
573	64	2	0.060000	8.904052	24.060133	26.540983
574	64	2	0.060000	10.940711	23.286723	27.735909
575	64	2	0.060000	10.813545	22.496828	26.123540
576	64	4	0.418000	10.095063	20.643750	27.101345
577	65	1	-0.180000	6.551950	6.036045	22.097395
578	65	5	0.145000	7.172725	6.746628	20.900910
579	65	3	-0.683000	8.545267	6.940823	21.107329
580	65	2	0.060000	6.714805	6.632388	23.020104
581	65	2	0.060000	7.010286	5.032534	22.225254
582	65	2	0.060000	5.460273	5.914095	21.935122
583	65	2	0.060000	6.686802	7.737123	20.774870
584	65	2	0.060000	6.996397	6.155230	19.973867
585	65	4	0.418000	8.983011	6.063760	20.949170
586	66	1	-0.180000	12.046582	15.715138	5.648773
587	66	5	0.145000	11.543249	14.833234	6.784892
588	66	3	-0.683000	12.059175	15.275346	8.010677
589	66	2	0.060000	13.156733	15.700093	5.619154
590	66	2	0.060000	11.699064	16.759937	5.793967
591	66	2	0.060000	11.655110	15.337845	4.680598
592	66	2	0.060000	11.880489	13.789636	6.610946
593	66	2	0.060000	10.429769	14.837327	6.804832
594	66	4	0.418000	11.538478	16.082110	8.263426
595	67	1	-0.180000	26.016776	8.541739	27.061895
596	67	5	0.145000	27.507892	8.232421	27.114434
597	67	3	-0.683000	27.714555	6.867725	27.357510
598	67	2	0.060000	25.534323	8.250955	28.019091
599	67	2	0.060000	25.540366	7.983595	26.228250
600	67	2	0.060000	25.865816	9.629561	26.898135
601	67	2	0.060000	27.970795	8.816040	27.937961
602	67	2	0.060000	27.993474	8.537639	26.159811
603	67	4	0.418000	27.538261	6.396979	26.501243
604	68	1	-0.180000	2.918815	24.833902	10.435405
605	68	5	0.145000	2.638933	25.656874	11.686903
606	68	3	-0.683000	1.980987	24.876081	12.646935
607	68	2	0.060000	1.967228	24.442792	10.017011
608	68	2	0.060000	3.587664	23.981861	10.680605
609	68	2	0.060000	3.413511	25.470461	9.671840
610	68	2	0.060000	1.988556	26.515944	11.418397
611	68	2	0.060000	3.592104	26.060718	12.097546
612	68	4	0.418000	2.669777	24.289989	13.056737
613	69	1	-0.180000	18.188142	11.786851	7.026214
614	69	5	0.145000	18.294808	12.924840	8.033919
615	69	3	-0.683000	19.287869	12.644823	8.982397
616	69	2	0.060000	17.953239	10.836081	7.550042
617	69	2	0.060000	19.145969	11.673655	6.475569
618	69	2	0.060000	17.379173	12.006474	6.298000
619	69	2	0.060000	17.322266	13.038041	8.557783
620	69	2	0.060000	18.515983	13.880412	7.506456
621	69	4	0.418000	20.159924	12.813486	8.538611
622	70	1	-0.180000	20.869178	2.689385	25.126782
623	70	5	0.145000	20.442865	3.307562	23.800893
624	70	3	-0.683000	20.075958	2.306206	22.891577
625	70	2	0.060000	21.720508	1.994486	24.965875
626	70	2	0.060000	20.021662	2.130728	25.577419
627	70	2	0.060000	21.185076	3.489885	25.828473
628	70	2	0.060000	21.294544	3.880338	23.377034
629	70	2	0.060000	19.598735	4.015173	23.965158
630	70	4	0.418000	19.171708	1.996287	23.160196
631	71	1	-0.180000	2.616232	16.989421	24.368384
632	71	5	0.145000	4.056832	17.483077	24.421669
633	71	3	-0.683000	4.122664	18.835295	24.059227
634	71	2	0.060000	2.204804	17.127214	23.345995
635	71	2	0.060000	1.992109	17.554559	25.092639
636	71	2	0.060000	2.580482	15.910606	24.628849
637	71	2	0.060000	4.669619	16.891955	23.708820
638	71	2	0.060000	4.473347	17.331204	25.443287
639	71	4	0.418000	3.802965	19.355031	24.842514
640	72	1	-0.180000	12.706171	2.884406	13.880467
641	72	5	0.145000	13.227945	3.110162	15.294203
642	72	3	-0.683000	13.931043	1.982854	15.740321
643	72	2	0.060000	12.044528	1.992647	13.857399
644	72	2	0.060000	13.554539	2.728126	13.180965
645	72	2	0.060000	12.126626	3.771788	13.549341
646	72	2	0.060000	12.368236	3.287217	15.974378
647	72	2	0.060000	13.879616	4.012903	15.319436
648	72	4	0.418000	14.817894	2.006607	15.294446
649	73	1	-0.180000	16.547830	3.346693	13.648884
650	73	5	0.145000	17.322016	3.354525	14.961301
651	73	3	-0.683000	17.264291	4.623233	15.553954
652	73	2	0.060000	16.966630	4.107000	12.956007
653	73	2	0.060000	15.476884	3.573525	13.836171
654	73	2	0.060000	16.625189	2.345596	13.174770
655	73	2	0.060000	18.384336	3.103476	14.757492
656	73	2	0.060000	16.910814	2.581980	15.650025
657	73	4	0.418000	16.362689	4.705337	15.961686
658	74	1	-0.180000	7.139752	10.521110	13.858211
659	74	5	0.145000	6.253607	11.736974	13.616783
660	74	3	-0.683000	5.040286	11.347918	13.033106
661	74	2	0.060000	7.333046	9.995233	12.899238
662	74	2	0.060000	6.644338	9.822070	14.564868
663	74	2	0.060000	8.108684	10.844745	14.293403
664	74	2	0.060000	6.774335	12.434364	12.927162
665	74	2	0.060000	6.072201	12.271949	14.576546
666	74	4	0.418000	4.488338	10.956489	13.759749
667	75	1	-0.180000	13.206493	5.823730	11.705749
668	75	5	0.145000	13.212134	7.318582	11.410368
669	75	3	-0.683000	14.156251	7.971051	12.214804
670	75	2	0.060000	12.974916	5.649013	12.777842
671	75	2	0.060000	14.198880	5.384372	11.469980
672	75	2	0.060000	12.435048	5.322367	11.084081
673	75	2	0.060000	12.206663	7.735665	11.629814
674	75	2	0.060000	13.430061	7.492365	10.332147
675	75	4	0.418000	15.046627	7.780873	11.818652
676	76	1	-0.180000	11.991394	5.973141	15.870174
677	76	5	0.145000	12.918309	6.037311	17.077890
678	76	3	-0.683000	12.191700	6.352777	18.234052
679	76	2	0.060000	11.472764	6.946186	15.736969
680	76	2	0.060000	11.235023	5.172315	16.011718
681	76	2	0.060000	12.582130	5.751588	14.956441
682	76	2	0.060000	13.680741	6.826707	16.908662
683	76	2	0.060000	13.448835	5.066047	17.202148
684	76	4	0.418000	11.718452	5.523666	18.506975
685	77	1	-0.180000	26.290437	13.041043	13.670654
686	77	5	0.145000	26.392468	11.521036	13.702779
687	77	3	-0.683000	25.154059	10.956112	14.036540
688	77	2	0.060000	25.956014	13.420517	14.659441
689	77	2	0.060000	25.564076	13.358433	12.892761
690	77	2	0.060000	27.283533	13.477826	13.434128
691	77	2	0.060000	27.138963	11.223537	14.469151
692	77	2	0.060000	26.741790	11.142371	12.715439
693	77	4	0.418000	24.589548	11.007734	13.221348
694	78	1	-0.180000	17.364597	3.209135	25.400386
695	78	5	0.145000	18.103650	3.708158	26.635960
696	78	3	-0.683000	17.418884	4.787279	27.211099
697	78	2	0.060000	17.263957	4.030843	24.659976
698	78	2	0.060000	16.353823	2.844753	25.681482
699	78	2	0.060000	17.931289	2.374100	24.937202
700	78	2	0.060000	19.118936	4.046460	26.339592
701	78	2	0.060000	18.216939	2.879874	27.371733
702	78	4	0.418000	16.643315	4.404071	27.698456
703	79	1	-0.180000	12.198746	19.248507	16.417705
704	79	5	0.145000	12.420508	17.803710	16.848110
705	79	3	-0.683000	11.200624	17.115095	16.891489
706	79	2	0.060000	11.504767	19.752958	17.123014
707	79	2	0.060000	11.766988	19.280059	15.394942
708	79	2	0.060000	13.167510	19.791144	16.415334
709	79	2	0.060000	12.873272	17.792499	17.861997
710	79	2	0.060000	13.127785	17.302833	16.148728
711	79	4	0.418000	10.956906	16.909843	15.951092
712	80	1	-0.180000	4.326222	6.796152	26.553155
713	80	5	0.145000	2.871353	6.723132	26.106064
714	80	3	-0.683000	2.015230	6.931076	27.196019
715	80	2	0.060000	4.521396	6.034719	27.337799
716	80	2	0.060000	4.550463	7.805192	26.959370
717	80	2	0.060000	4.993905	6.601050	25.687651
718	80	2	0.060000	2.672024	5.716272	25.682288
719	80	2	0.060000	2.680128	7.477085	25.309044
720	80	4	0.418000	2.021339	7.906835	27.379679
721	81	1	-0.180000	12.358172	10.677120	25.838965
722	81	5	0.145000	12.651825	11.887909	26.716247
723	81	3	-0.683000	13.037042	11.478080	27.999929
724	81	2	0.060000	11.554431	10.062177	26.296548
725	81	2	0.060000	13.272699	10.057274	25.725448
726	81	2	0.060000	12.026169	11.014497	24.834518
727	81	2	0.060000	11.733746	12.507020	26.799423
728	81	2	0.060000	13.447634	12.511686	26.249511
729	81	4	0.418000	13.977492	11.167705	27.928553
730	82	1	-0.180000	18.802623	16.319509	10.508706
731	82	5	0.145000	19.764021	15.148437	10.670470
732	82	3	-0.683000	20.986013	15.589725	11.196009
733	82	2	0.060000	19.247021	17.086455	9.839495
734	82	2	0.060000	18.588886	16.777248	11.497770
735	82	2	0.060000	17.849471	15.962585	10.064781
736	82	2	0.060000	19.947691	14.689656	9.676050
737	82	2	0.060000	19.311687	14.373341	11.329919
738	82	4	0.418000	20.839396	15.741918	12.166171
739	83	1	-0.180000	19.675884	12.519781	21.835575
740	83	5	0.145000	18.880799	13.222426	20.741959
741	83	3	-0.683000	17.653813	12.576173	20.539344
742	83	2	0.060000	19.848976	11.458539	21.557470
743	83	2	0.060000	19.120723	12.559777	22.796643
744	83	2	0.060000	20.657173	13.022636	21.966613
745	83	2	0.060000	19.460795	13.192621	19.795490
746	83	2	0.060000	18.720183	14.290130	21.014838
747	83	4	0.418000	17.063297	12.846195	21.290513
748	84	1	-0.180000	12.683414	14.584833	17.330055
749	84	5	0.145000	11.875524	14.505455	16.040528
750	84	3	-0.683000	12.353583	15.435612	15.107544
751	84	2	0.060000	12.623682	15.609850	17.753506
752	84	2	0.060000	13.746596	14.333350	17.130419
753	84	2	0.060000	12.277155	13.864557	18.071080
754	84	2	0.060000	10.812607	14.737052	16.263363
755	84	2	0.060000	11.924005	13.473641	15.624283
756	84	4	0.418000	13.190922	15.056415	14.732114
757	85	1	-0.180000	15.737463	19.508175	27.018521
758	85	5	0.145000	17.057154	18.793168	27.281287
759	85	3	-0.683000	16.838007	17.618738	28.014010
760	85	2	0.060000	15.238309	19.750470	27.980642
761	85	2	0.060000	15.067750	18.862473	26.411885
762	85	2	0.060000	15.926760	20.450971	26.463303
763	85	2	0.060000	17.721521	19.461755	27.868393
764	85	2	0.060000	17.563931	18.563516	26.316565
765	85	4	0.418000	16.479090	16.948510	27.375381
766	86	1	-0.180000	7.253111	21.093422	4.960649
767	86	5	0.145000	7.284299	19.911441	3.999498
768	86	3	-0.683000	6.009021	19.341358	3.886091
769	86	2	0.060000	6.896997	20.762091	5.959118
770	86	2	0.060000	6.573748	21.882191	4.573653
771	86	2	0.060000	8.273785	21.518098	5.064752
772	86	2	0.060000	7.985128	19.144021	4.390641
773	86	2	0.060000	7.655264	20.241546	3.002668
774	86	4	0.418000	5.480576	19.942492	3.298504
775	87	1	-0.180000	6.213447	14.801465	7.475358
776	87	5	0.145000	7.241445	15.615146	6.698821
777	87	3	-0.683000	7.736184	16.659738	7.491445
778	87	2	0.060000	5.378105	15.456585	7.801793
779	87	2	0.060000	6.686830	14.340749	8.368165
780	87	2	0.060000	5.807671	13.995645	6.828084
781	87	2	0.060000	6.756464	16.048529	5.798789
782	87	2	0.060000	8.071467	14.954763	6.359396
783	87	4	0.418000	8.380950	16.252673	8.127408
784	88	1	-0.180000	27.084170	21.923715	22.453538
785	88	5	0.145000	26.466935	23.307538	22.614531
786	88	3	-0.683000	27.425636	24.218031	23.079383
787	88	2	0.060000	27.496193	21.576004	23.424555
788	88	2	0.060000	27.900009	21.954963	21.700621
789	88	2	0.060000	26.308812	21.205442	22.113146
790	88	2	0.060000	25.639372	23.252124	23.352877
791	88	2	0.060000	26.041153	23.649311	21.643885
792	88	4	0.418000	27.999710	24.447239	22.302353
793	89	1	-0.180000	11.351980	25.851606	17.868166
794	89	5	0.145000	11.514402	27.355839	18.049186
795	89	3	-0.683000	10.283349	28.003373	17.877724
796	89	2	0.060000	10.946819	25.631940	16.857657
797	89	2	0.060000	10.658384	25.447533	18.635697
798	89	2	0.060000	12.338083	25.352948	17.977268
799	89	2	0.060000	12.227918	27.737907	17.288919
800	89	2	0.060000	11.934310	27.574434	19.057227
801	89	4	0.418000	9.764238	27.851362	18.710365
802	90	1	-0.180000	21.571804	16.032422	7.789312
803	90	5	0.145000	22.605195	17.151964	7.764910
804	90	3	-0.683000	23.788871	16.709871	7.158564
805	90	2	0.060000	21.974070	15.155797	8.339994
806	90	2	0.060000	21.315772	15.726717	6.752756
807	90	2	0.060000	20.649813	16.385241	8.297654
808	90	2	0.060000	22.831365	17.459863	8.807565
809	90	2	0.060000	22.195670	18.035828	7.225164
810	90	4	0.418000	23.619949	16.699543	6.180182
811	91	1	-0.180000	22.968714	8.163385	21.075322
812	91	5	0.145000	23.921765	9.312143	20.768870
813	91	3	-0.683000	23.313648	10.540974	21.059318
814	91	2	0.060000	22.036871	8.273813	20.481172
815	91	2	0.060000	22.714155	8.156727	22.156345
816	91	2	0.060000	23.450427	7.197668	20.813968
817	91	2	0.060000	24.182891	9.289021	19.689813
818	91	2	0.060000	24.861748	9.192864	21.354068
819	91	4	0.418000	23.337622	10.643235	22.046659
820	92	1	-0.180000	23.558204	7.370718	17.085677
821	92	5	0.145000	24.480179	6.544722	16.197107
822	92	3	-0.683000	25.437787	5.878465	16.973818
823	92	2	0.060000	24.151302	8.107168	17.668271
824	92	2	0.060000	23.008917	6.707340	17.786867
825	92	2	0.060000	22.823047	7.916356	16.457357
826	92	2	0.060000	25.002882	7.221133	15.488351
827	92	2	0.060000	23.883227	5.816437	15.602546
828	92	4	0.418000	24.975472	5.106765	17.394077
829	93	1	-0.180000	6.774953	17.072651	16.943741
830	93	5	0.145000	6.842068	18.578970	17.163659
831	93	3	-0.683000	6.745250	19.255235	15.939942
832	93	2	0.060000	7.595137	16.750311	16.267773
833	93	2	0.060000	5.798924	16.796068	16.491719
834	93	2	0.060000	6.881966	16.547383	17.916163
835	93	2	0.060000	7.813904	18.833724	17.636650
836	93	2	0.060000	6.028210	18.899290	17.853067
837	93	4	0.418000	5.788468	19.228707	15.675862
838	94	1	-0.180000	20.757186	2.872084	13.333192
839	94	5	0.145000	19.578798	3.567647	12.662775
840	94	3	-0.683000	19.165027	4.668993	13.424368
841	94	2	0.060000	20.471966	2.540099	14.353963
842	94	2	0.060000	21.621009	3.566639	13.402888
843	94	2	0.060000	21.056999	1.985022	12.736370
844	94	2	0.060000	18.733611	2.852055	12.581083
845	94	2	0.060000	19.861028	3.887323	11.633986
846	94	4	0.418000	19.824289	5.392671	13.258423
847	95	1	-0.180000	27.028462	14.689827	21.483378
848	95	5	0.145000	26.416115	15.306390	20.231680
849	95	3	-0.683000	27.250030	16.312814	19.725827
850	95	2	0.060000	27.186279	15.473180	22.254735
851	95	2	0.060000	28.002954	14.216825	21.238250
852	95	2	0.060000	26.345735	13.914880	21.891182
853	95	2	0.060000	25.433341	15.753613	20.490971
854	95	2	0.060000	26.244752	14.517870	19.464136
855	95	4	0.418000	27.999496	15.854531	19.263062
856	96	1	-0.180000	19.362995	15.294881	4.214938
857	96	5	0.145000	19.275160	13.818001	4.579598
858	96	3	-0.683000	20.412447	13.424604	5.297934
859	96	2	0.060000	20.275678	15.483591	3.610838
860	96	2	0.060000	19.400188	15.913918	5.136277
861	96	2	0.060000	18.471219	15.587484	3.621574
862	96	2	0.060000	19.215677	13.217022	3.647733
863	96	2	0.060000	18.352278	13.627016	5.172949
864	96	4	0.418000	20.297910	13.769432	6.221973
865	97	1	-0.180000	18.052695	7.359667	12.197234
866	97	5	0.145000	17.961183	6.535057	10.919146
867	97	3	-0.683000	17.922667	7.375506	9.798274
868	97	2	0.060000	17.182915	8.046544	12.269489
869	97	2	0.060000	18.990011	7.955386	12.200775
870	97	2	0.060000	18.053005	6.684622	13.078867
871	97	2	0.060000	17.030658	5.929578	10.943755
872	97	2	0.060000	18.825986	5.836340	10.854623
873	97	4	0.418000	18.850898	7.696174	9.651870
874	98	1	-0.180000	11.014599	19.045733	11.443513
875	98	5	0.145000	11.882384	19.201122	10.200666
876	98	3	-0.683000	13.240113	19.165561	10.546353
877	98	2	0.060000	11.241295	19.855525	12.169037
878	98	2	0.060000	11.206199	18.062072	11.922215
879	98	2	0.060000	9.942371	19.104749	11.161011
880	98	2	0.060000	11.660822	20.178927	9.723284
881	98	2	0.060000	11.644196	18.397303	9.467595
882	98	4	0.418000	13.465252	18.213338	10.715044
883	99	1	-0.180000	7.004949	24.397187	17.763526
884	99	5	0.145000	6.077359	25.302179	18.565046
885	99	3	-0.683000	6.818742	26.266158	19.261672
886	99	2	0.060000	7.729647	23.899138	18.441979
887	99	2	0.060000	7.560882	24.992838	17.008812
888	99	2	0.060000	6.409086	23.620287	17.239755
889	99	2	0.060000	5.513870	24.686752	19.297723
890	99	2	0.060000	5.341742	25.789977	17.885949
891	99	4	0.418000	7.088284	26.952274	18.596491
892	100	1	-0.180000	19.114876	6.173970	21.821250
893	100	5	0.145000	20.490698	5.903706	21.224644
894	100	3	-0.683000	20.452544	6.038428	19.830160
895	100	2	0.060000	18.370144	5.469643	21.393657
896	100	2	0.060000	18.801069	7.216144	21.600219
897	100	2	0.060000	19.150795	6.035739	22.922416
898	100	2	0.060000	20.797403	4.866243	21.475021
899	100	2	0.060000	21.239607	6.600701	21.664628
900	100	4	0.418000	20.443222	7.012768	19.639242
901	101	1	-0.180000	9.869749	15.243965	27.218136
902	101	5	0.145000	8.552770	14.641695	26.744109
903	101	3	-0.683000	7.663275	14.507161	27.818768
904	101	2	0.060000	10.320586	14.601347	28.003838
905	101	2	0.060000	9.697724	16.260292	27.631586
906	101	2	0.060000	10.575902	15.318451	26.364461
907	101	2	0.060000	8.747403	13.636788	26.313567
908	101	2	0.060000	8.108567	15.278946	25.946082
909	101	4	0.418000	7.304544	15.413961	28.005581
910	102	1	-0.180000	17.683416	13.456377	15.593155
911	102	5	0.145000	18.696668	13.224172	14.479033
912	102	3	-0.683000	19.953748	12.919853	15.018784
913	102	2	0.060000	18.023611	14.285118	16.249658
914	102	2	0.060000	17.565786	12.533948	16.200396
915	102	2	0.060000	16.699538	13.725086	15.154131
916	102	2	0.060000	18.783876	14.148211	13.869416
917	102	2	0.060000	18.347783	12.402801	13.812789
918	102	4	0.418000	19.911202	11.975504	15.322542
919	103	1	-0.180000	14.674393	9.649394	9.659223
920	103	5	0.145000	15.928453	8.829272	9.382455
921	103	3	-0.683000	15.726292	7.491154	9.746818
922	103	2	0.060000	14.409199	9.586712	10.735923
923	103	2	0.060000	13.826894	9.267697	9.051353
924	103	2	0.060000	14.856293	10.712231	9.394172
925	103	2	0.060000	16.769484	9.239191	9.980552
926	103	2	0.060000	16.202002	8.904399	8.305524
927	103	4	0.418000	15.171954	7.082776	9.031408
928	104	1	-0.180000	27.400376	3.100663	13.340512
929	104	5	0.145000	25.971982	3.030505	12.814554
930	104	3	-0.683000	25.959155	3.161051	11.419210
931	104	2	0.060000	27.866642	4.064946	13.046752
932	104	2	0.060000	28.001063	2.263250	12.926544
933	104	2	0.060000	27.395324	3.025531	14.448344
934	104	2	0.060000	25.381371	3.860577	13.256420
935	104	2	0.060000	25.500318	2.069602	13.121884
936	104	4	0.418000	26.251752	2.287167	11.049631
937	105	1	-0.180000	11.275171	15.359829	11.052105
938	105	5	0.145000	12.353003	15.491981	12.121067
939	105	3	-0.683000	12.536842	14.269819	12.781912
940	105	2	0.060000	10.319726	15.032456	11.514155
941	105	2	0.060000	11.585007	14.616185	10.287612
942	105	2	0.060000	11.118034	16.340665	10.555888
943	105	2	0.060000	12.036631	16.255196	12.863021
944	105	2	0.060000	13.306803	15.834253	11.659149
945	105	4	0.418000	13.064145	13.692627	12.169806
946	106	1	-0.180000	15.620105	14.933443	11.366176
947	106	5	0.145000	15.116610	14.172075	10.146063
948	106	3	-0.683000	13.748943	14.409700	9.953161
949	106	2	0.060000	15.051639	14.623783	12.268669
950	106	2	0.060000	15.494857	16.026226	11.212574
951	106	2	0.060000	16.696912	14.714427	11.525809
952	106	2	0.060000	15.270833	13.084372	10.307939
953	106	2	0.060000	15.696850	14.472476	9.244212
954	106	4	0.418000	13.671798	15.315117	9.552983
955	107	1	-0.180000	26.041367	16.493729	24.673633
956	107	5	0.145000	27.562466	16.441230	24.746899
957	107	3	-0.683000	27.993282	15.133249	25.007234
958	107	2	0.060000	25.602222	16.134041	25.628260
959	107	2	0.060000	25.677160	15.855825	23.840634
960	107	2	0.060000	25.711133	17.538933	24.496272
961	107	2	0.060000	27.909196	17.101871	25.569345
962	107	2	0.060000	28.002225	16.815695	23.794722
963	107	4	0.418000	27.910404	14.631984	24.154158
964	108	1	-0.180000	5.768009	24.200933	12.021611
965	108	5	0.145000	6.886567	23.596650	12.861572
966	108	3	-0.683000	6.665621	22.226192	13.054498
967	108	2	0.060000	4.789089	24.042583	12.521791
968	108	2	0.060000	5.746144	23.727003	11.017437
969	108	2	0.060000	5.938483	25.291430	11.900295
970	108	2	0.060000	6.907880	24.097959	13.852188
971	108	2	0.060000	7.869242	23.768565	12.366551
972	108	4	0.418000	6.915090	21.776125	12.205334
973	109	1	-0.180000	20.499767	27.043104	16.162547
974	109	5	0.145000	19.461479	27.286250	15.074106
975	109	3	-0.683000	19.152565	26.086866	14.418179
976	109	2	0.060000	21.419946	26.606735	15.719388
977	109	2	0.060000	20.095745	26.345404	16.926377
978	109	2	0.060000	20.757786	28.004294	16.654992
979	109	2	0.060000	19.873818	28.002856	14.332797
980	109	2	0.060000	18.544610	27.737239	15.517065
981	109	4	0.418000	18.553701	25.577661	15.024764
982	110	1	-0.180000	27.376385	17.922437	16.992879
983	110	5	0.145000	27.059079	18.182176	15.525324
984	110	3	-0.683000	26.325757	19.368532	15.387526
985	110	2	0.060000	26.435438	17.855478	17.579116
986	110	2	0.060000	28.002387	18.744848	17.399346
987	110	2	0.060000	27.931610	16.965960	17.092074
988	110	2	0.060000	26.452972	17.339680	15.130454
989	110	2	0.060000	28.002442	18.234713	14.935782
990	110	4	0.418000	26.971977	20.115302	15.490532
991	111	1	-0.180000	10.856983	11.508228	13.864613
992	111	5	0.145000	9.952936	12.734769	13.877360
993	111	3	-0.683000	9.088019	12.691626	14.979289
994	111	2	0.060000	10.242716	10.583672	13.827060
995	111	2	0.060000	11.488793	11.490298	14.777821
996	111	2	0.060000	11.516830	11.538984	12.972078
997	111	2	0.060000	9.346261	12.748120	12.947385
998	111	2	0.060000	10.569826	13.661684	13.900343
999	111	4	0.418000	9.626555	12.948031	15.773083
1000	112	1	-0.180000	2.733111	12.953510	2.838149
1001	112	5	0.145000	3.714630	11.792470	2.940481
1002	112	3	-0.683000	3.031689	10.599026	3.211544
1003	112	2	0.060000	2.160915	13.052064	3.784942
1004	112	2	0.060000	2.025332	12.782137	1.999618
1005	112	2	0.060000	3.287919	13.897267	2.652477
1006	112	2	0.060000	4.427643	11.991896	3.768085
1007	112	2	0.060000	4.298159	11.703422	1.996121
1008	112	4	0.418000	2.614271	10.310669	2.358030
1009	113	1	-0.180000	10.321942	2.669559	5.850110
1010	113	5	0.145000	9.681026	2.943959	7.205026
1011	113	3	-0.683000	8.445112	3.583671	7.039260
1012	113	2	0.060000	10.460516	3.621718	5.295377
1013	113	2	0.060000	9.677350	1.989682	5.253684
1014	113	2	0.060000	11.312644	2.189517	5.995134
1015	113	2	0.060000	10.349424	3.605688	7.795317
1016	113	2	0.060000	9.555736	1.990427	7.766569
1017	113	4	0.418000	7.799451	2.884699	6.755650
1018	114	1	-0.180000	26.389222	25.214030	9.636547
1019	114	5	0.145000	26.897956	24.354963	10.787659
1020	114	3	-0.683000	26.332149	24.777207	11.998346
1021	114	2	0.060000	26.639220	26.280688	9.818970
1022	114	2	0.060000	25.287948	25.108337	9.539181
1023	114	2	0.060000	26.866320	24.889213	8.687951
1024	114	2	0.060000	28.001805	24.455261	10.855057
1025	114	2	0.060000	26.659719	23.283906	10.597047
1026	114	4	0.418000	25.400978	24.432807	12.011902
1027	115	1	-0.180000	16.644472	14.199449	19.112584
1028	115	5	0.145000	16.040533	15.189355	18.124045
1029	115	3	-0.683000	16.847449	16.330730	18.022352
1030	115	2	0.060000	16.752413	14.676170	20.109893
1031	115	2	0.060000	17.642377	13.865842	18.757133
1032	115	2	0.060000	15.982116	13.313214	19.206580
1033	115	2	0.060000	15.034993	15.493676	18.483717
1034	115	2	0.060000	15.919164	14.706101	17.128059
1035	115	4	0.418000	17.625487	16.079076	17.459146
1036	116	1	-0.180000	15.575586	23.489172	11.355015
1037	116	5	0.145000	15.642089	22.025172	10.937708
1038	116	3	-0.683000	16.694770	21.822785	10.034883
1039	116	2	0.060000	15.435983	24.133257	10.461033
1040	116	2	0.060000	16.513553	23.781356	11.872994
1041	116	2	0.060000	14.720673	23.642624	12.046780
1042	116	2	0.060000	14.688262	21.745187	10.442826
1043	116	2	0.060000	15.767495	21.378979	11.836018
1044	116	4	0.418000	17.531048	21.819028	10.570138
1045	117	1	-0.180000	22.912242	2.952053	4.240219
1046	117	5	0.145000	22.985056	3.573497	5.629597
1047	117	3	-0.683000	22.401296	2.720843	6.576379
1048	117	2	0.060000	21.854078	2.752822	3.967940
1049	117	2	0.060000	23.480922	1.998332	4.218440
1050	117	2	0.060000	23.351008	3.648764	3.495209
1051	117	2	0.060000	22.431218	4.535962	5.626138
1052	117	2	0.060000	24.045254	3.786335	5.895926
1053	117	4	0.418000	23.058039	1.996478	6.749177
1054	118	1	-0.180000	26.931945	26.324760	4.764870
1055	118	5	0.145000	25.969903	25.145314	4.837315
1056	118	3	-0.683000	24.997899	25.368627	5.821962
1057	118	2	0.060000	27.420489	26.477849	5.750480
1058	118	2	0.060000	26.383304	27.247936	4.481685
1059	118	2	0.060000	27.713788	26.123638	4.002483
1060	118	2	0.060000	26.539011	24.228309	5.098665
1061	118	2	0.060000	25.491332	24.983383	3.844843
1062	118	4	0.418000	24.347525	26.013091	5.437834
1063	119	1	-0.180000	16.230874	11.346922	25.083253
1064	119	5	0.145000	15.419696	12.048339	24.000724
1065	119	3	-0.683000	14.720968	11.109536	23.229609
1066	119	2	0.060000	16.943829	10.631878	24.620709
1067	119	2	0.060000	15.554370	10.795594	25.770155
1068	119	2	0.060000	16.802326	12.097943	25.668379
1069	119	2	0.060000	16.109744	12.612209	23.338175
1070	119	2	0.060000	14.715283	12.775640	24.464499
1071	119	4	0.418000	13.943094	10.817984	23.773469
1072	120	1	-0.180000	10.188146	12.901521	3.999113
1073	120	5	0.145000	11.622362	12.519766	3.653927
1074	120	3	-0.683000	11.796720	11.133153	3.759257
1075	120	2	0.060000	9.943247	12.566913	5.029453
1076	120	2	0.060000	9.484011	12.426452	3.283600
1077	120	2	0.060000	10.069979	14.004054	3.940624
1078	120	2	0.060000	12.312524	13.021565	4.364533
1079	120	2	0.060000	11.871839	12.868428	2.626090
1080	120	4	0.418000	11.382386	10.732705	2.950651
1081	121	1	-0.180000	16.299015	8.795507	22.724688
1082	121	5	0.145000	16.484735	9.844821	21.635508
1083	121	3	-0.683000	15.405013	9.817032	20.742413
1084	121	2	0.060000	16.211044	7.786372	22.269227
1085	121	2	0.060000	15.381458	9.012793	23.311486
1086	121	2	0.060000	17.173710	8.807199	23.408599
1087	121	2	0.060000	17.417720	9.624830	21.074948
1088	121	2	0.060000	16.587412	10.854613	22.093800
1089	121	4	0.418000	14.647845	10.269568	21.198245
1090	122	1	-0.180000	16.843005	18.091155	9.383122
1091	122	5	0.145000	16.355064	19.442085	8.874431
1092	122	3	-0.683000	17.441239	20.296193	8.640094
1093	122	2	0.060000	17.426903	18.225481	10.318300
1094	122	2	0.060000	17.484743	17.604516	8.618393
1095	122	2	0.060000	15.973012	17.433792	9.592758
1096	122	2	0.060000	15.697429	19.902732	9.641508
1097	122	2	0.060000	15.757460	19.305116	7.944720
1098	122	4	0.418000	17.853529	20.003263	7.785645
1099	123	1	-0.180000	26.878949	6.402383	23.062028
1100	123	5	0.145000	27.334501	7.853947	23.147467
1101	123	3	-0.683000	26.226818	8.708662	23.229265
1102	123	2	0.060000	26.225750	6.260599	22.175029
1103	123	2	0.060000	26.316295	6.124403	23.978326
1104	123	2	0.060000	27.763343	5.737541	22.968250
1105	123	2	0.060000	27.914100	8.106735	22.234642
1106	123	2	0.060000	28.001107	7.992086	24.028833
1107	123	4	0.418000	25.889557	8.647878	24.161164
1108	124	1	-0.180000	5.532541	27.008942	9.608609
1109	124	5	0.145000	7.033211	26.972319	9.870360
1110	124	3	-0.683000	7.419157	25.701788	10.318677
1111	124	2	0.060000	4.978553	26.750905	10.535999
1112	124	2	0.060000	5.266555	26.283967	8.810412
1113	124	2	0.060000	5.234357	28.027563	9.282327
1114	124	2	0.060000	7.283302	27.718686	10.653608
1115	124	2	0.060000	7.587629	27.245312	8.943889
1116	124	4	0.418000	7.435932	25.111965	9.520115
1117	125	1	-0.180000	12.168944	5.972481	26.512777
1118	125	5	0.145000	12.358934	7.400350	27.009728
1119	125	3	-0.683000	11.123353	8.056765	27.091282
1120	125	2	0.060000	11.677827	5.978913	25.516634
1121	125	2	0.060000	11.539396	5.400448	27.226851
1122	125	2	0.060000	13.156454	5.472490	26.424478
1123	125	2	0.060000	13.008756	7.949525	26.296128
1124	125	2	0.060000	12.864527	7.393579	28.001989
1125	125	4	0.418000	10.675321	7.717813	27.909972
1126	126	1	-0.180000	4.574720	21.321497	10.704316
1127	126	5	0.145000	3.581918	21.450046	9.555541
1128	126	3	-0.683000	2.276629	21.219972	10.011038
1129	126	2	0.060000	4.504775	20.309092	11.155629
1130	126	2	0.060000	4.358939	22.084087	11.482358
1131	126	2	0.060000	5.607017	21.476823	10.325899
1132	126	2	0.060000	3.827005	20.696098	8.777993
1133	126	2	0.060000	3.662842	22.460436	9.094222
1134	126	4	0.418000	1.993559	22.042951	10.489005
1135	127	1	-0.180000	5.861646	23.047071	26.180577
1136	127	5	0.145000	4.670437	23.576096	25.391262
1137	127	3	-0.683000	4.151622	24.725308	26.003090
1138	127	2	0.060000	5.554414	22.814777	27.222300
1139	127	2	0.060000	6.673721	23.804457	26.199406
1140	127	2	0.060000	6.245442	22.120986	25.703051
1141	127	2	0.060000	3.878859	22.797810	25.363665
1142	127	2	0.060000	4.975855	23.795063	24.342918
1143	127	4	0.418000	4.768216	25.470087	25.777281
1144	128	1	-0.180000	14.941572	3.076842	23.361439
1145	128	5	0.145000	14.863207	4.506552	23.882642
1146	128	3	-0.683000	13.573913	5.023496	23.696418
1147	128	2	0.060000	14.675666	3.050172	22.283422
1148	128	2	0.060000	14.241596	2.425674	23.926654
1149	128	2	0.060000	15.974210	2.688637	23.487605
1150	128	2	0.060000	15.585285	5.137188	23.322295
1151	128	2	0.060000	15.144030	4.534531	24.959958
1152	128	4	0.418000	13.002281	4.621537	24.401783
1153	129	1	-0.180000	13.466712	24.653513	20.600074
1154	129	5	0.145000	13.883847	25.847872	21.449408
1155	129	3	-0.683000	15.272929	25.852553	21.635470
1156	129	2	0.060000	13.785715	23.709021	21.089676
1157	129	2	0.060000	13.932817	24.719158	19.594146
1158	129	2	0.060000	12.362428	24.644217	20.484163
1159	129	2	0.060000	13.390755	25.777327	22.441865
1160	129	2	0.060000	13.550872	26.793798	20.965048
1161	129	4	0.418000	15.671834	26.180467	20.787401
1162	130	1	-0.180000	18.188961	6.969578	24.815614
1163	130	5	0.145000	17.572138	7.580979	26.067645
1164	130	3	-0.683000	16.839378	8.729624	25.739210
1165	130	2	0.060000	18.849950	7.709950	24.317136
1166	130	2	0.060000	17.390166	6.659024	24.109258
1167	130	2	0.060000	18.790427	6.078022	25.091894
1168	130	2	0.060000	18.383582	7.863885	26.770929
1169	130	2	0.060000	16.920959	6.833302	26.574792
1170	130	4	0.418000	15.985027	8.417192	25.341285
1171	131	1	-0.180000	12.983800	24.379720	15.546761
1172	131	5	0.145000	11.790825	23.767280	14.823164
1173	131	3	-0.683000	11.589428	24.402825	13.590397
1174	131	2	0.060000	12.815797	25.466187	15.704565
1175	131	2	0.060000	13.908136	24.236090	14.948073
1176	131	2	0.060000	13.115357	23.888318	16.533766
1177	131	2	0.060000	10.881275	23.899922	15.446231
1178	131	2	0.060000	11.953641	22.675154	14.678236
1179	131	4	0.418000	12.281642	24.049512	12.972429
1180	132	1	-0.180000	14.972084	22.123226	18.230086
1181	132	5	0.145000	15.869847	21.263897	17.348359
1182	132	3	-0.683000	16.043329	21.866496	16.094977
1183	132	2	0.060000	13.985686	22.268708	17.740808
1184	132	2	0.060000	15.443300	23.113755	18.404046
1185	132	2	0.060000	14.818403	21.621901	19.208870
1186	132	2	0.060000	15.394054	20.270913	17.204512
1187	132	2	0.060000	16.853522	21.106405	17.846187
1188	132	4	0.418000	16.694788	22.604846	16.222705
1189	133	1	-0.180000	26.134324	18.242270	6.270748
1190	133	5	0.145000	24.956179	19.201089	6.150301
1191	133	3	-0.683000	25.369608	20.515942	6.404128
1192	133	2	0.060000	26.576969	18.309813	7.287135
1193	133	2	0.060000	26.910025	18.494198	5.516908
1194	133	2	0.060000	25.789022	17.201419	6.096511
1195	133	2	0.060000	24.181933	18.920026	6.895038
1196	133	2	0.060000	24.503860	19.122232	5.135688
1197	133	4	0.418000	25.843674	20.826829	5.588969
1198	134	1	-0.180000	6.372344	13.829783	16.880743
1199	134	5	0.145000	6.370998	14.067339	18.385878
1200	134	3	-0.683000	5.459975	15.078870	18.719093
1201	134	2	0.060000	6.637379	14.767682	16.348163
1202	134	2	0.060000	5.368675	13.491158	16.546923
1203	134	2	0.060000	7.118216	13.047633	16.626031
1204	134	2	0.060000	7.386998	14.382537	18.704438
1205	134	2	0.060000	6.119395	13.122905	18.919725
1206	134	4	0.418000	4.555321	14.672049	18.674694
1207	135	1	-0.180000	11.995490	23.904789	7.836644
1208	135	5	0.145000	13.345936	23.202020	7.902034
1209	135	3	-0.683000	13.281739	22.101907	8.767957
1210	135	2	0.060000	11.691670	24.239472	8.851149
1211	135	2	0.060000	11.224860	23.213948	7.433752
1212	135	2	0.060000	12.066567	24.790787	7.171123
1213	135	2	0.060000	14.107361	23.913927	8.284795
1214	135	2	0.060000	13.656639	22.879603	6.882346
1215	135	4	0.418000	12.809881	21.380242	8.275592
1216	136	1	-0.180000	6.334504	3.528064	3.677052
1217	136	5	0.145000	7.800741	3.429619	3.274159
1218	136	3	-0.683000	8.116146	2.116765	2.898493
1219	136	2	0.060000	6.123841	2.833380	4.517632
1220	136	2	0.060000	5.683697	3.267343	2.815698
1221	136	2	0.060000	6.104046	4.565096	4.000186
1222	136	2	0.060000	8.434915	3.715636	4.139667
1223	136	2	0.060000	8.014514	4.136971	2.440967
1224	136	4	0.418000	7.746089	1.985785	1.986475
1225	137	1	-0.180000	5.485483	9.426080	11.120955
1226	137	5	0.145000	4.259342	9.662986	10.247847
1227	137	3	-0.683000	3.415590	8.544348	10.278190
1228	137	2	0.060000	6.035532	8.528018	10.768153
1229	137	2	0.060000	5.178229	9.274737	12.177433
1230	137	2	0.060000	6.159886	10.306479	11.065801
1231	137	2	0.060000	4.587078	9.834911	9.200891
1232	137	2	0.060000	3.716418	10.571945	10.593216
1233	137	4	0.418000	2.935305	8.574510	11.146689
1234	138	1	-0.180000	23.899827	6.386765	24.452708
1235	138	5	0.145000	23.647922	5.065999	23.735779
1236	138	3	-0.683000	24.849151	4.546370	23.234555
1237	138	2	0.060000	24.364920	7.115209	23.755143
1238	138	2	0.060000	24.576043	6.227725	25.319249
1239	138	2	0.060000	22.937908	6.802796	24.819576
1240	138	2	0.060000	22.952673	5.240296	22.887643
1241	138	2	0.060000	23.168299	4.340906	24.431806
1242	138	4	0.418000	25.334584	4.156728	24.008124
1243	139	1	-0.180000	2.895972	4.446306	21.745468
1244	139	5	0.145000	3.113930	4.850785	23.198313
1245	139	3	-0.683000	1.996865	4.508842	23.972543
1246	139	2	0.060000	1.989764	4.946967	21.343394
1247	139	2	0.060000	2.768797	3.345535	21.670733
1248	139	2	0.060000	3.774417	4.748342	21.137133
1249	139	2	0.060000	3.261882	5.950081	23.250690
1250	139	2	0.060000	4.030858	4.359781	23.596321
1251	139	4	0.418000	2.047017	3.529157	24.126090
1252	140	1	-0.180000	9.338705	15.535089	23.841610
1253	140	5	0.145000	9.852527	16.835096	24.448101
1254	140	3	-0.683000	9.515643	17.921696	23.629565
1255	140	2	0.060000	9.769204	15.392413	22.827780
1256	140	2	0.060000	8.230821	15.560008	23.767948
1257	140	2	0.060000	9.636685	14.679321	24.483353
1258	140	2	0.060000	10.958317	16.782793	24.535161
1259	140	2	0.060000	9.431850	16.970214	25.470367
1260	140	4	0.418000	8.552224	18.105573	23.784117
1261	141	1	-0.180000	2.960314	12.970237	22.947992
1262	141	5	0.145000	2.766601	12.865565	21.440217
1263	141	3	-0.683000	3.965126	13.153827	20.773408
1264	141	2	0.060000	3.306453	13.990763	23.216790
1265	141	2	0.060000	3.712698	12.227686	23.288569
1266	141	2	0.060000	1.997893	12.768617	23.463800
1267	141	2	0.060000	1.995442	13.598318	21.121669
1268	141	2	0.060000	2.405625	11.846475	21.173003
1269	141	4	0.418000	4.540354	12.349483	20.862953
1270	142	1	-0.180000	3.102270	12.836258	11.315114
1271	142	5	0.145000	4.584799	13.157195	11.170298
1272	142	3	-0.683000	4.775948	14.152845	10.202655
1273	142	2	0.060000	2.689108	12.500408	10.340413
1274	142	2	0.060000	2.548422	13.736527	11.656029
1275	142	2	0.060000	2.965977	12.026479	12.062539
1276	142	2	0.060000	5.125026	12.240881	10.851536
1277	142	2	0.060000	5.001639	13.479941	12.151283
1278	142	4	0.418000	4.521602	15.013708	10.627033
1279	143	1	-0.180000	9.394435	22.780005	23.731352
1280	143	5	0.145000	9.935728	21.396841	24.071536
1281	143	3	-0.683000	9.600124	20.480817	23.065324
1282	143	2	0.060000	8.291088	22.737471	23.611548
1283	143	2	0.060000	9.850584	23.146822	22.787515
1284	143	2	0.060000	9.641057	23.489813	24.548856
1285	143	2	0.060000	9.486714	21.056684	25.028492
1286	143	2	0.060000	11.040301	21.443165	24.205791
1287	143	4	0.418000	10.217506	20.653234	22.307046
1288	144	1	-0.180000	14.155762	6.390363	3.324109
1289	144	5	0.145000	12.839206	5.671356	3.056575
1290	144	3	-0.683000	11.800244	6.598764	2.899530
1291	144	2	0.060000	14.067749	7.017532	4.236497
1292	144	2	0.060000	14.419958	7.036749	2.460488
1293	144	2	0.060000	14.964971	5.645264	3.475672
1294	144	2	0.060000	12.603241	5.013304	3.919347
1295	144	2	0.060000	12.932745	5.031476	2.149902
1296	144	4	0.418000	11.898301	6.983501	1.989455
1297	145	1	-0.180000	27.090137	10.158298	20.050558
1298	145	5	0.145000	27.186636	11.323731	21.027450
1299	145	3	-0.683000	25.989838	11.459837	21.743928
1300	145	2	0.060000	26.245287	10.320187	19.348021
1301	145	2	0.060000	26.928517	9.208953	20.603800
1302	145	2	0.060000	28.032503	10.078767	19.468677
1303	145	2	0.060000	27.370961	12.259574	20.458847
1304	145	2	0.060000	28.042901	11.167691	21.722226
1305	145	4	0.418000	25.987928	10.744009	22.432012
1306	146	1	-0.180000	5.022550	11.312717	6.132974
1307	146	5	0.145000	5.262829	9.946198	5.503087
1308	146	3	-0.683000	4.368662	9.003264	6.027996
1309	146	2	0.060000	5.143518	11.249737	7.235217
1310	146	2	0.060000	3.996380	11.666326	5.897625
1311	146	2	0.060000	5.755231	12.043980	5.731233
1312	146	2	0.060000	6.299805	9.619640	5.729201
1313	146	2	0.060000	5.155642	10.013301	4.396624
1314	146	4	0.418000	3.492459	9.169177	5.591401
1315	147	1	-0.180000	17.119489	17.069910	23.085743
1316	147	5	0.145000	17.769219	15.950415	22.281723
1317	147	3	-0.683000	18.006629	16.369665	20.965647
1318	147	2	0.060000	16.164472	17.375833	22.608362
1319	147	2	0.060000	17.799298	17.946618	23.137679
1320	147	2	0.060000	16.909759	16.716628	24.117328
1321	147	2	0.060000	17.085877	15.075394	22.260092
1322	147	2	0.060000	18.719427	15.634300	22.768990
1323	147	4	0.418000	18.806190	16.957646	20.994886
1324	148	1	-0.180000	8.598444	22.651967	15.684270
1325	148	5	0.145000	8.863703	21.249385	16.217437
1326	148	3	-0.683000	8.231540	21.070652	17.455425
1327	148	2	0.060000	8.965096	23.409665	16.408838
1328	148	2	0.060000	7.509677	22.798826	15.521563
1329	148	2	0.060000	9.127835	22.791381	14.718210
1330	148	2	0.060000	9.957517	21.113111	16.351925
1331	148	2	0.060000	8.508945	20.490271	15.483853
1332	148	4	0.418000	7.267223	20.931290	17.264259
1333	149	1	-0.180000	23.991515	10.366226	9.418005
1334	149	5	0.145000	23.604189	9.890992	10.812995
1335	149	3	-0.683000	22.502584	9.027217	10.745524
1336	149	2	0.060000	23.132997	10.885017	8.941200
1337	149	2	0.060000	24.290440	9.500861	8.789322
1338	149	2	0.060000	24.845936	11.072039	9.486952
1339	149	2	0.060000	23.330918	10.770629	11.433195
1340	149	2	0.060000	24.470011	9.383732	11.295997
1341	149	4	0.418000	22.847039	8.152221	10.426768
1342	150	1	-0.180000	23.225523	22.528329	24.231085
1343	150	5	0.145000	23.428959	22.588281	25.740020
1344	150	3	-0.683000	22.644122	23.606661	26.297807
1345	150	2	0.060000	23.491239	23.504433	23.772660
1346	150	2	0.060000	22.165776	22.291580	23.997972
1347	150	2	0.060000	23.873753	21.738063	23.797217
1348	150	2	0.060000	24.497269	22.802848	25.953939
1349	150	2	0.060000	23.176205	21.604747	26.197217
1350	150	4	0.418000	21.713260	23.262614	26.329449
1351	151	1	-0.180000	12.511116	18.633445	26.587182
1352	151	5	0.145000	12.464584	19.752990	25.554554
1353	151	3	-0.683000	13.759234	20.073238	25.123842
1354	151	2	0.060000	13.132567	18.941912	27.454468
1355	151	2	0.060000	12.943741	17.715580	26.135726
1356	151	2	0.060000	11.483244	18.408799	26.942114
1357	151	2	0.060000	12.008690	20.654034	26.016470
1358	151	2	0.060000	11.829452	19.448531	24.691904
1359	151	4	0.418000	14.033594	19.357542	24.492667
1360	152	1	-0.180000	7.259940	26.990130	15.032749
1361	152	5	0.145000	8.775642	26.878187	15.142204
1362	152	3	-0.683000	9.138509	25.606021	15.604927
1363	152	2	0.060000	6.792358	26.800161	16.022102
1364	152	2	0.060000	6.874704	26.251158	14.298605
1365	152	2	0.060000	6.983622	28.010704	14.693574
1366	152	2	0.060000	9.144666	27.638829	15.862157
1367	152	2	0.060000	9.244533	27.083088	14.153059
1368	152	4	0.418000	9.041199	24.985748	14.835728
1369	153	1	-0.180000	3.217781	22.520686	17.425066
1370	153	5	0.145000	3.674018	21.077300	17.250853
1371	153	3	-0.683000	2.647367	20.194368	17.612257
1372	153	2	0.060000	2.918620	22.700106	18.479509
1373	153	2	0.060000	2.354006	22.730903	16.759366
1374	153	2	0.060000	4.048380	23.209784	17.163889
1375	153	2	0.060000	4.551298	20.892400	17.906046
1376	153	2	0.060000	3.987545	20.902154	16.196682
1377	153	4	0.418000	1.997586	20.192006	16.861489
1378	154	1	-0.180000	14.005980	20.475487	6.101287
1379	154	5	0.145000	14.259012	18.979731	5.957923
1380	154	3	-0.683000	13.813146	18.298209	7.098503
1381	154	2	0.060000	14.526811	20.864482	7.001818
1382	154	2	0.060000	12.916826	20.670938	6.196141
1383	154	2	0.060000	14.389492	21.007449	5.205241
1384	154	2	0.060000	15.349513	18.805682	5.841300
1385	154	2	0.060000	13.748442	18.593265	5.046761
1386	154	4	0.418000	12.824017	18.245974	7.029447
1387	155	1	-0.180000	10.500509	27.148863	21.444121
1388	155	5	0.145000	9.151994	26.482311	21.201056
1389	155	3	-0.683000	8.108984	27.375634	21.480873
1390	155	2	0.060000	10.569972	27.492974	22.497829
1391	155	2	0.060000	10.623275	28.020094	20.766376
1392	155	2	0.060000	11.317528	26.423080	21.247441
1393	155	2	0.060000	9.056831	25.601218	21.870165
1394	155	2	0.060000	9.088822	26.124625	20.148287
1395	155	4	0.418000	8.058079	28.002282	20.712371
1396	156	1	-0.180000	13.019989	2.730695	8.210177
1397	156	5	0.145000	12.798624	3.627806	9.421809
1398	156	3	-0.683000	12.688872	2.856001	10.586482
1399	156	2	0.060000	12.178516	2.012761	8.110010
1400	156	2	0.060000	13.970230	2.166674	8.321434
1401	156	2	0.060000	13.076066	3.350738	7.290740
1402	156	2	0.060000	11.857251	4.200079	9.282498
1403	156	2	0.060000	13.635466	4.356921	9.513129
1404	156	4	0.418000	13.609905	2.575170	10.828775
1405	157	1	-0.180000	15.954136	9.230817	2.941633
1406	157	5	0.145000	14.771410	10.147141	2.652883
1407	157	3	-0.683000	13.737349	9.429229	2.036837
1408	157	2	0.060000	16.320837	8.774638	1.997721
1409	157	2	0.060000	15.650318	8.425031	3.642959
1410	157	2	0.060000	16.777369	9.816360	3.402491
1411	157	2	0.060000	15.099373	10.958562	1.969419
1412	157	2	0.060000	14.413531	10.615397	3.597822
1413	157	4	0.418000	13.292266	8.902881	2.751493
1414	158	1	-0.180000	5.550193	2.704895	21.370203
1415	158	5	0.145000	6.125701	3.198577	20.048487
1416	158	3	-0.683000	7.332021	3.878228	20.265420
1417	158	2	0.060000	5.382916	3.562461	22.055869
1418	158	2	0.060000	6.250709	1.987035	21.847078
1419	158	2	0.060000	4.581067	2.194144	21.188846
1420	158	2	0.060000	5.402594	3.896304	19.575857
1421	158	2	0.060000	6.279542	2.339838	19.356279
1422	158	4	0.418000	8.023080	3.184517	20.429969
1423	159	1	-0.180000	9.058396	17.111393	20.185283
1424	159	5	0.145000	9.965373	17.088541	18.961055
1425	159	3	-0.683000	9.838224	15.868781	18.282667
1426	159	2	0.060000	9.316470	16.271982	20.865229
1427	159	2	0.060000	7.996163	17.017015	19.875106
1428	159	2	0.060000	9.189464	18.069934	20.730244
1429	159	2	0.060000	11.019851	17.207008	19.288360
1430	159	2	0.060000	9.715655	17.939010	18.286819
1431	159	4	0.418000	8.982665	15.911044	17.780565
1432	160	1	-0.180000	13.794311	13.438542	21.527433
1433	160	5	0.145000	12.539342	12.842749	22.153490
1434	160	3	-0.683000	12.730113	12.636543	23.526544
1435	160	2	0.060000	14.659145	12.761260	21.691413
1436	160	2	0.060000	14.014114	14.428207	21.980980
1437	160	2	0.060000	13.641512	13.570008	20.435493
1438	160	2	0.060000	12.322478	11.865760	21.672295
1439	160	2	0.060000	11.669712	13.515444	21.976069
1440	160	4	0.418000	12.653516	13.526280	23.960566
1441	161	1	-0.180000	27.220187	19.121986	2.759580
1442	161	5	0.145000	26.744202	17.687553	2.953761
1443	161	3	-0.683000	27.817317	16.862665	3.317318
1444	161	2	0.060000	28.007236	19.158609	1.976795
1445	161	2	0.060000	27.632505	19.519397	3.711164
1446	161	2	0.060000	26.367762	19.759575	2.443644
1447	161	2	0.060000	26.314823	17.315375	1.999715
1448	161	2	0.060000	25.944844	17.653684	3.728443
1449	161	4	0.418000	28.002741	17.043994	4.275761
1450	162	1	-0.180000	13.283728	5.968422	6.707223
1451	162	5	0.145000	11.801785	6.158281	6.407789
1452	162	3	-0.683000	11.258827	7.146565	7.240065
1453	162	2	0.060000	13.423038	5.684446	7.771878
1454	162	2	0.060000	13.837650	6.909463	6.504575
1455	162	2	0.060000	13.695590	5.163489	6.062696
1456	162	2	0.060000	11.268564	5.202157	6.593771
1457	162	2	0.060000	11.661848	6.428791	5.336577
1458	162	4	0.418000	11.554425	8.020551	6.873125
1459	163	1	-0.180000	25.363690	22.980783	15.680983
1460	163	5	0.145000	26.072301	22.915710	17.028388
1461	163	3	-0.683000	26.348090	24.207355	17.497199
1462	163	2	0.060000	25.994814	23.523172	14.945432
1463	163	2	0.060000	24.391239	23.506826	15.786210
1464	163	2	0.060000	25.176834	21.952317	15.306409
1465	163	2	0.060000	27.030287	22.367100	16.908489
1466	163	2	0.060000	25.445240	22.359122	17.761366
1467	163	4	0.418000	25.492350	24.572061	17.844436
1468	164	1	-0.180000	20.085601	18.782120	4.199270
1469	164	5	0.145000	19.006684	19.730907	4.706820
1470	164	3	-0.683000	19.557952	20.986795	4.994983
1471	164	2	0.060000	20.888002	18.677214	4.959984
1472	164	2	0.060000	20.524486	19.172498	3.256700
1473	164	2	0.060000	19.642863	17.783035	4.002354
1474	164	2	0.060000	18.564027	19.313455	5.635731
1475	164	2	0.060000	18.195423	19.824231	3.949588
1476	164	4	0.418000	19.698573	21.441772	4.123721
1477	165	1	-0.180000	7.314785	23.212582	7.424725
1478	165	5	0.145000	6.151107	24.194916	7.477065
1479	165	3	-0.683000	6.605167	25.501295	7.250356
1480	165	2	0.060000	8.076859	23.485241	8.185277
1481	165	2	0.060000	7.782146	23.227901	6.417355
1482	165	2	0.060000	6.947525	22.185906	7.634533
1483	165	2	0.060000	5.682472	24.149115	8.482734
1484	165	2	0.060000	5.380730	23.912359	6.724116
1485	165	4	0.418000	6.767184	25.580079	6.273925
1486	166	1	-0.180000	19.939924	23.524055	13.640752
1487	166	5	0.145000	21.170541	24.372304	13.344237
1488	166	3	-0.683000	22.339111	23.648863	13.618589
1489	166	2	0.060000	19.945794	23.204596	14.704448
1490	166	2	0.060000	19.930284	22.624707	12.989188
1491	166	2	0.060000	19.021265	24.117137	13.447668
1492	166	2	0.060000	21.151242	25.277134	13.987662
1493	166	2	0.060000	21.156486	24.704300	12.281300
1494	166	4	0.418000	22.463381	23.013994	12.865348
1495	167	1	-0.180000	16.417649	21.632702	3.208799
1496	167	5	0.145000	16.069391	23.107109	3.045377
1497	167	3	-0.683000	17.166978	23.908330	3.388216
1498	167	2	0.060000	16.722311	21.428043	4.257052
1499	167	2	0.060000	17.250077	21.359260	2.526341
1500	167	2	0.060000	15.532176	21.009549	2.962671
1501	167	2	0.060000	15.221372	23.356364	3.717554
1502	167	2	0.060000	15.750088	23.308597	1.997665
1503	167	4	0.418000	17.800637	23.863375	2.625110
1504	168	1	-0.180000	22.652258	7.191042	13.061857
1505	168	5	0.145000	23.639348	6.033998	12.968215
1506	168	3	-0.683000	23.967169	5.779809	11.629517
1507	168	2	0.060000	21.732703	6.953714	12.485983
1508	168	2	0.060000	23.109965	8.117129	12.654031
1509	168	2	0.060000	22.377854	7.363789	14.123848
1510	168	2	0.060000	23.173488	5.123615	13.400955
1511	168	2	0.060000	24.555055	6.266642	13.557800
1512	168	4	0.418000	24.606639	6.487838	11.354478
1513	169	1	-0.180000	2.427177	7.267600	13.589826
1514	169	5	0.145000	3.944733	7.289112	13.454089
1515	169	3	-0.683000	4.508736	6.186931	14.110815
1516	169	2	0.060000	2.141349	7.280094	14.662991
1517	169	2	0.060000	2.014214	6.353867	13.112325
1518	169	2	0.060000	1.994195	8.160249	13.091160
1519	169	2	0.060000	4.337261	8.219465	13.916098
1520	169	2	0.060000	4.230283	7.291246	12.377656
1521	169	4	0.418000	4.360446	5.400162	13.523551
1522	170	1	-0.180000	17.691975	22.946132	7.838018
1523	170	5	0.145000	18.015013	22.611250	6.387030
1524	170	3	-0.683000	17.219731	23.374707	5.521669
1525	170	2	0.060000	16.617589	22.752789	8.042595
1526	170	2	0.060000	17.916304	24.014521	8.042168
1527	170	2	0.060000	18.306758	22.314759	8.513571
1528	170	2	0.060000	17.806632	21.535352	6.207841
1529	170	2	0.060000	19.095552	22.791566	6.186598
1530	170	4	0.418000	17.609371	24.287891	5.509477
1531	171	1	-0.180000	16.222806	6.236389	20.229882
1532	171	5	0.145000	14.998350	6.846432	19.558748
1533	171	3	-0.683000	14.000764	5.876603	19.390089
1534	171	2	0.060000	16.612543	5.395695	19.617609
1535	171	2	0.060000	15.956382	5.859813	21.240161
1536	171	2	0.060000	17.016389	7.006365	20.331496
1537	171	2	0.060000	15.288590	7.237619	18.560840
1538	171	2	0.060000	14.616848	7.698548	20.165878
1539	171	4	0.418000	13.579913	5.744568	20.279653
1540	172	1	-0.180000	27.358318	20.382653	12.371257
1541	172	5	0.145000	25.913516	20.794122	12.116096
1542	172	3	-0.683000	25.451571	21.619345	13.150410
1543	172	2	0.060000	27.435962	19.850286	13.342903
1544	172	2	0.060000	28.012518	21.279876	12.392911
1545	172	2	0.060000	27.703388	19.706202	11.561132
1546	172	2	0.060000	25.278825	19.883873	12.074860
1547	172	2	0.060000	25.834046	21.315019	11.134972
1548	172	4	0.418000	25.846852	22.516911	12.995485
1549	173	1	-0.180000	21.113037	25.730620	21.014604
1550	173	5	0.145000	20.488906	26.821866	20.153494
1551	173	3	-0.683000	21.190940	28.025149	20.306625
1552	173	2	0.060000	21.107135	26.038559	22.081692
1553	173	2	0.060000	22.159798	25.543482	20.694095
1554	173	2	0.060000	20.531325	24.790886	20.907496
1555	173	2	0.060000	19.437003	26.978908	20.472748
1556	173	2	0.060000	20.481989	26.506206	19.085522
1557	173	4	0.418000	22.025975	27.936021	19.776864
1558	174	1	-0.180000	11.288667	7.198059	22.130915
1559	174	5	0.145000	11.715871	8.134071	23.254856
1560	174	3	-0.683000	12.615210	9.095242	22.773679
1561	174	2	0.060000	12.178767	6.697693	21.694001
1562	174	2	0.060000	10.764329	7.770124	21.336392
1563	174	2	0.060000	10.599808	6.424025	22.530049
1564	174	2	0.060000	12.217101	7.542010	24.049411
1565	174	2	0.060000	10.821523	8.624388	23.702052
1566	174	4	0.418000	12.076133	9.764750	22.276658
1567	175	1	-0.180000	4.015316	7.065321	8.136478
1568	175	5	0.145000	2.550009	7.293811	7.786433
1569	175	3	-0.683000	1.997529	8.277164	8.618283
1570	175	2	0.060000	4.108594	6.757277	9.199468
1571	175	2	0.060000	4.596412	7.997714	7.973916
1572	175	2	0.060000	4.433714	6.264414	7.491146
1573	175	2	0.060000	1.989897	6.346215	7.932799
1574	175	2	0.060000	2.456063	7.588539	6.716591
1575	175	4	0.418000	2.325254	9.151503	8.280640
1576	176	1	-0.180000	9.105799	6.307785	17.834996
1577	176	5	0.145000	8.956132	4.791889	17.874007
1578	176	3	-0.683000	9.952715	4.224044	18.679343
1579	176	2	0.060000	10.108882	6.580745	17.444029
1580	176	2	0.060000	8.984026	6.729686	18.855107
1581	176	2	0.060000	8.329528	6.743484	17.171270
1582	176	2	0.060000	9.057764	4.390547	16.843628
1583	176	2	0.060000	7.944851	4.519194	18.252427
1584	176	4	0.418000	9.680941	4.382147	19.621158
1585	177	1	-0.180000	22.618156	11.151518	3.000124
1586	177	5	0.145000	21.838480	11.968230	4.023330
1587	177	3	-0.683000	22.001024	13.338740	3.779463
1588	177	2	0.060000	23.695567	11.417846	3.042500
1589	177	2	0.060000	22.232259	11.351507	1.978095
1590	177	2	0.060000	22.505537	10.069159	3.220982
1591	177	2	0.060000	22.222187	11.738293	5.039688
1592	177	2	0.060000	20.760591	11.690174	3.990279
1593	177	4	0.418000	21.422209	13.559618	3.003537
1594	178	1	-0.180000	22.025836	19.548143	23.385272
1595	178	5	0.145000	20.524411	19.350070	23.216883
1596	178	3	-0.683000	20.201826	19.195948	21.861753
1597	178	2	0.060000	22.357927	20.440677	22.813752
1598	178	2	0.060000	22.572395	18.654243	23.016936
1599	178	2	0.060000	22.265373	19.698184	24.459085
1600	178	2	0.060000	19.994157	20.242577	23.611025
1601	178	2	0.060000	20.189793	18.463498	23.801924
1602	178	4	0.418000	20.460018	18.270301	21.611976
1603	179	1	-0.180000	18.221102	24.804506	22.982534
1604	179	5	0.145000	18.218781	25.163925	24.463304
1605	179	3	-0.683000	19.396042	24.713815	25.076205
1606	179	2	0.060000	18.315268	23.704833	22.858479
1607	179	2	0.060000	19.070255	25.304087	22.469880
1608	179	2	0.060000	17.271663	25.139961	22.514562
1609	179	2	0.060000	17.351027	24.674835	24.954101
1610	179	2	0.060000	18.109722	26.265297	24.587150
1611	179	4	0.418000	20.113235	25.348340	24.813743
1612	180	1	-0.180000	6.724669	9.603061	27.069129
1613	180	5	0.145000	7.468835	10.919675	26.883091
1614	180	3	-0.683000	8.852019	10.696971	26.845723
1615	180	2	0.060000	7.053672	9.109931	28.008341
1616	180	2	0.060000	6.925588	8.926625	26.211505
1617	180	2	0.060000	5.632567	9.795370	27.126516
1618	180	2	0.060000	7.238035	11.590809	27.737138
1619	180	2	0.060000	7.127877	11.420491	25.948648
1620	180	4	0.418000	9.056418	10.331024	25.945624
1621	181	1	-0.180000	21.656984	15.934056	19.350444
1622	181	5	0.145000	22.849437	15.329275	20.081307
1623	181	3	-0.683000	22.447945	14.215662	20.831547
1624	181	2	0.060000	20.874967	16.232155	20.080599
1625	181	2	0.060000	21.230389	15.195216	18.639397
1626	181	2	0.060000	21.981672	16.831884	18.783481
1627	181	2	0.060000	23.276367	16.088738	20.769807
1628	181	2	0.060000	23.639120	15.043976	19.349694
1629	181	4	0.418000	22.327164	13.468764	20.188561
1630	182	1	-0.180000	20.006430	20.313846	17.841999
1631	182	5	0.145000	19.536018	20.996437	16.563466
1632	182	3	-0.683000	19.147385	20.040639	15.614991
1633	182	2	0.060000	20.856549	19.634612	17.619567
1634	182	2	0.060000	19.176459	19.726300	18.288535
1635	182	2	0.060000	20.338911	21.079399	18.574356
1636	182	2	0.060000	20.370886	21.596732	16.144267
1637	182	2	0.060000	18.693122	21.688247	16.789692
1638	182	4	0.418000	18.253651	19.710464	15.894451
1639	183	1	-0.180000	25.747905	2.690558	26.394174
1640	183	5	0.145000	26.345660	4.075224	26.611556
1641	183	3	-0.683000	25.357452	4.970843	27.042256
1642	183	2	0.060000	24.931561	2.742648	25.642904
1643	183	2	0.060000	25.340836	2.296351	27.349344
1644	183	2	0.060000	26.533293	1.997608	26.025462
1645	183	2	0.060000	26.767581	4.443011	25.652493
1646	183	2	0.060000	27.173735	4.019673	27.354158
1647	183	4	0.418000	25.194156	4.773556	28.001571
1648	184	1	-0.180000	7.003420	18.684250	25.854929
1649	184	5	0.145000	6.813009	18.897045	27.351702
1650	184	3	-0.683000	5.724178	18.146842	27.816281
1651	184	2	0.060000	6.081766	18.977656	25.309030
1652	184	2	0.060000	7.227187	17.616538	25.646665
1653	184	2	0.060000	7.849672	19.305579	25.493307
1654	184	2	0.060000	6.613332	19.972535	27.542850
1655	184	2	0.060000	7.742574	18.616360	27.897024
1656	184	4	0.418000	6.034716	17.205974	27.881148
1657	185	1	-0.180000	26.927679	6.870694	13.382201
1658	185	5	0.145000	26.443973	8.314164	13.447700
1659	185	3	-0.683000	26.971126	8.954315	14.577526
1660	185	2	0.060000	26.624166	6.326054	14.301323
1661	185	2	0.060000	28.034060	6.842776	13.289480
1662	185	2	0.060000	26.480621	6.365907	12.499993
1663	185	2	0.060000	25.335716	8.322745	13.516835
1664	185	2	0.060000	26.736069	8.855628	12.519396
1665	185	4	0.418000	27.917447	9.168589	14.366724
1666	186	1	-0.180000	21.805745	7.285415	27.408643
1667	186	5	0.145000	21.422164	5.850513	27.068371
1668	186	3	-0.683000	22.421038	5.250277	26.289809
1669	186	2	0.060000	21.960041	7.868890	26.476286
1670	186	2	0.060000	22.741265	7.298706	28.007040
1671	186	2	0.060000	20.994383	7.759383	28.000260
1672	186	2	0.060000	20.473811	5.855631	26.490715
1673	186	2	0.060000	21.253458	5.269962	28.003653
1674	186	4	0.418000	23.162266	5.018497	26.908465
1675	187	1	-0.180000	4.751460	7.370749	2.727299
1676	187	5	0.145000	3.959267	6.598535	3.775146
1677	187	3	-0.683000	3.168895	5.616356	3.162914
1678	187	2	0.060000	4.058707	7.842904	1.998807
1679	187	2	0.060000	5.438586	6.685681	2.186935
1680	187	2	0.060000	5.350808	8.164388	3.221143
1681	187	2	0.060000	3.295618	7.302632	4.320035
1682	187	2	0.060000	4.653864	6.137485	4.513537
1683	187	4	0.418000	3.779005	4.871491	2.920396
1684	188	1	-0.180000	25.378016	6.988362	8.855783
1685	188	5	0.145000	23.921073	6.628347	8.592022
1686	188	3	-0.683000	23.823376	5.766000	7.491566
1687	188	2	0.060000	25.819066	7.470256	7.957568
1688	188	2	0.060000	25.958480	6.074122	9.102119
1689	188	2	0.060000	25.440177	7.694289	9.710632
1690	188	2	0.060000	23.352397	7.556036	8.370464
1691	188	2	0.060000	23.475428	6.158417	9.498013
1692	188	4	0.418000	24.099240	4.866931	7.810074
1693	189	1	-0.180000	6.051519	13.430817	25.479027
1694	189	5	0.145000	5.354108	14.738886	25.126270
1695	189	3	-0.683000	4.110603	14.817006	25.767974
1696	189	2	0.060000	5.417259	12.569370	25.180428
1697	189	2	0.060000	6.242159	13.382657	26.572093
1698	189	2	0.060000	7.021486	13.367319	24.942283
1699	189	2	0.060000	5.192680	14.779490	24.028373
1700	189	2	0.060000	5.997024	15.601932	25.412735
1701	189	4	0.418000	4.294461	15.046732	26.716287
1702	190	1	-0.180000	15.527543	14.631622	6.553366
1703	190	5	0.145000	16.656286	15.622513	6.810156
1704	190	3	-0.683000	16.203807	16.935913	6.624591
1705	190	2	0.060000	15.140694	14.755684	5.519686
1706	190	2	0.060000	14.700673	14.799486	7.275559
1707	190	2	0.060000	15.905223	13.594517	6.674748
1708	190	2	0.060000	17.482396	15.424900	6.094909
1709	190	2	0.060000	17.053353	15.487663	7.841856
1710	190	4	0.418000	15.671920	17.169366	7.429868
1711	191	1	-0.180000	25.024909	14.872051	3.746951
1712	191	5	0.145000	23.756148	15.698764	3.577672
1713	191	3	-0.683000	23.367857	15.725975	2.231314
1714	191	2	0.060000	25.841702	15.297984	3.126491
1715	191	2	0.060000	24.840241	13.821716	3.436873
1716	191	2	0.060000	25.338734	14.882062	4.812022
1717	191	2	0.060000	23.953050	16.738658	3.913733
1718	191	2	0.060000	22.941790	15.279660	4.211253
1719	191	4	0.418000	22.948507	14.846755	2.038981
1720	192	1	-0.180000	21.260095	25.102326	3.021341
1721	192	5	0.145000	22.767372	25.109931	3.244782
1722	192	3	-0.683000	23.279128	26.403438	3.074083
1723	192	2	0.060000	21.025416	25.469962	1.999916
1724	192	2	0.060000	20.760252	25.754743	3.768309
1725	192	2	0.060000	20.870861	24.068126	3.130381
1726	192	2	0.060000	23.247356	24.435350	2.504754
1727	192	2	0.060000	23.002689	24.727495	4.263910
1728	192	4	0.418000	23.047190	26.911145	3.895248
1729	193	1	-0.180000	20.965233	11.140383	18.531101
1730	193	5	0.145000	21.252787	9.824027	17.819495
1731	193	3	-0.683000	21.780370	10.064549	16.543566
1732	193	2	0.060000	20.250843	11.746666	17.934773
1733	193	2	0.060000	21.906382	11.714067	18.667408
1734	193	2	0.060000	20.520876	10.937420	19.528255
1735	193	2	0.060000	20.305405	9.254670	17.712790
1736	193	2	0.060000	21.957854	9.210471	18.425038
1737	193	4	0.418000	22.729678	10.325006	16.673377
1738	194	1	-0.180000	3.128618	25.148494	15.439921
1739	194	5	0.145000	4.500565	25.746286	15.153093
1740	194	3	-0.683000	4.499761	27.121282	15.424344
1741	194	2	0.060000	2.356681	25.655117	14.822680
1742	194	2	0.060000	2.875835	25.271368	16.514378
1743	194	2	0.060000	3.133330	24.065746	15.193757
1744	194	2	0.060000	4.745877	25.593866	14.080863
1745	194	2	0.060000	5.276012	25.227985	15.761615
1746	194	4	0.418000	4.546680	27.215894	16.411623
1747	195	1	-0.180000	27.409897	9.851127	8.943912
1748	195	5	0.145000	27.030749	10.377914	7.565287
1749	195	3	-0.683000	26.233124	11.524200	7.683674
1750	195	2	0.060000	26.493773	9.615725	9.526013
1751	195	2	0.060000	28.005968	10.611089	9.492193
1752	195	2	0.060000	28.016636	8.927259	8.837617
1753	195	2	0.060000	26.455957	9.597138	7.023909
1754	195	2	0.060000	27.949916	10.599998	6.977016
1755	195	4	0.418000	26.843122	12.271421	7.919124
1756	196	1	-0.180000	19.549753	10.229830	10.356320
1757	196	5	0.145000	19.964649	11.509600	11.071802
1758	196	3	-0.683000	20.394452	11.222564	12.374519
1759	196	2	0.060000	18.736513	9.725663	10.920231
1760	196	2	0.060000	20.417132	9.541351	10.272021
1761	196	2	0.060000	19.183985	10.473025	9.336500
1762	196	2	0.060000	19.092010	12.194159	11.126256
1763	196	2	0.060000	20.770017	12.022020	10.498163
1764	196	4	0.418000	21.308857	10.843904	12.294803
1765	197	1	-0.180000	25.803519	6.904823	19.391898
1766	197	5	0.145000	26.772603	5.734989	19.511195
1767	197	3	-0.683000	28.041206	6.189927	19.895733
1768	197	2	0.060000	26.183031	7.638582	18.649533
1769	197	2	0.060000	25.688312	7.406837	20.375851
1770	197	2	0.060000	24.810667	6.535779	19.058709
1771	197	2	0.060000	26.857362	5.231917	18.524878
1772	197	2	0.060000	26.384219	4.992718	20.244982
1773	197	4	0.418000	27.990053	6.385385	20.867872
1774	198	1	-0.180000	13.387574	17.021672	22.957281
1775	198	5	0.145000	12.194820	16.261842	22.389954
1776	198	3	-0.683000	11.074480	17.100323	22.312630
1777	198	2	0.060000	13.141433	17.417606	23.965343
1778	198	2	0.060000	13.655084	17.866725	22.288119
1779	198	2	0.060000	14.260054	16.339964	23.041030
1780	198	2	0.060000	11.956659	15.408281	23.059132
1781	198	2	0.060000	12.447363	15.852809	21.385381
1782	198	4	0.418000	11.212563	17.686519	21.523212
1783	199	1	-0.180000	23.006051	20.105586	16.356523
1784	199	5	0.145000	22.360174	20.111770	14.976425
1785	199	3	-0.683000	22.516185	21.365906	14.370625
1786	199	2	0.060000	22.549308	20.892507	16.993452
1787	199	2	0.060000	24.096908	20.294501	16.268228
1788	199	2	0.060000	22.850686	19.117127	16.837952
1789	199	2	0.060000	21.275525	19.898711	15.082394
1790	199	2	0.060000	22.808554	19.312944	14.343112
1791	199	4	0.418000	23.454555	21.411167	14.049241
1792	200	1	-0.180000	9.493360	25.848189	7.023052
1793	200	5	0.145000	10.614831	26.754575	7.515631
1794	200	3	-0.683000	10.119558	28.035650	7.794453
1795	200	2	0.060000	9.028040	26.280183	6.111790
1796	200	2	0.060000	8.718751	25.736747	7.811097
1797	200	2	0.060000	9.902903	24.845632	6.777867
1798	200	2	0.060000	11.389886	26.835614	6.724551
1799	200	2	0.060000	11.090442	26.313484	8.420885
1800	200	4	0.418000	9.643691	27.973060	8.663652
1801	201	1	-0.180000	6.052812	7.889978	16.471794
1802	201	5	0.145000	5.307833	9.104029	17.013043
1803	201	3	-0.683000	5.996297	9.652282	18.103743
1804	201	2	0.060000	6.165655	7.126221	17.270219
1805	201	2	0.060000	7.058487	8.190071	16.108452
1806	201	2	0.060000	5.483405	7.447306	15.627531
1807	201	2	0.060000	4.297568	8.789412	17.349894
1808	201	2	0.060000	5.182329	9.863244	16.208000
1809	201	4	0.418000	6.764998	10.157179	17.729506
1810	202	1	-0.180000	9.812698	12.615128	18.592485
1811	202	5	0.145000	10.420713	12.896228	19.961122
1812	202	3	-0.683000	10.039357	14.167083	20.412438
1813	202	2	0.060000	10.139586	13.388350	17.865291
1814	202	2	0.060000	8.704088	12.621339	18.658806
1815	202	2	0.060000	10.145259	11.618637	18.232803
1816	202	2	0.060000	11.527711	12.863247	19.880154
1817	202	2	0.060000	10.104182	12.112387	20.686141
1818	202	4	0.418000	9.101086	14.086806	20.727202
1819	203	1	-0.180000	8.165628	5.931082	5.441495
1820	203	5	0.145000	6.969024	5.650473	6.342196
1821	203	3	-0.683000	7.341242	5.742186	7.690244
1822	203	2	0.060000	8.981894	5.209770	5.658196
1823	203	2	0.060000	8.536540	6.964196	5.610474
1824	203	2	0.060000	7.865672	5.826861	4.377481
1825	203	2	0.060000	6.598050	4.622926	6.143171
1826	203	2	0.060000	6.145646	6.364859	6.114263
1827	203	4	0.418000	7.408455	6.710150	7.900964
1828	204	1	-0.180000	12.345612	8.744067	19.314530
1829	204	5	0.145000	12.265133	10.248966	19.089436
1830	204	3	-0.683000	13.480536	10.858534	19.429162
1831	204	2	0.060000	12.591430	8.531208	20.376511
1832	204	2	0.060000	13.128535	8.301990	18.662567
1833	204	2	0.060000	11.368656	8.276366	19.070042
1834	204	2	0.060000	11.462786	10.669571	19.731633
1835	204	2	0.060000	12.004338	10.461292	18.027760
1836	204	4	0.418000	14.109420	10.672831	18.683579
1837	205	1	-0.180000	23.799351	19.548736	9.847340
1838	205	5	0.145000	25.114024	19.059870	9.251931
1839	205	3	-0.683000	26.098991	18.978473	10.245614
1840	205	2	0.060000	23.942751	20.543575	10.319856
1841	205	2	0.060000	23.436073	18.829951	10.612083
1842	205	2	0.060000	23.035627	19.637040	9.046159
1843	205	2	0.060000	25.449573	19.778114	8.474359
1844	205	2	0.060000	24.966110	18.068950	8.765668
1845	205	4	0.418000	25.907048	18.156796	10.768949
1846	206	1	-0.180000	7.655297	14.369183	11.124888
1847	206	5	0.145000	7.232796	15.815839	10.900066
1848	206	3	-0.683000	8.239507	16.690468	11.331051
1849	206	2	0.060000	7.868977	14.198536	12.201344
1850	206	2	0.060000	8.565550	14.140744	10.530993
1851	206	2	0.060000	6.838724	13.687165	10.807048
1852	206	2	0.060000	6.309571	16.019005	11.482703
1853	206	2	0.060000	7.004719	15.982389	9.822803
1854	206	4	0.418000	8.945826	16.676168	10.633353
1855	207	1	-0.180000	8.259893	3.061599	23.813456
1856	207	5	0.145000	9.093272	4.295913	24.135657
1857	207	3	-0.683000	8.342845	5.460222	23.922506
1858	207	2	0.060000	7.914527	3.100921	22.758603
1859	207	2	0.060000	7.377016	3.011167	24.485349
1860	207	2	0.060000	8.873628	2.147577	23.957871
1861	207	2	0.060000	9.982337	4.317231	23.470679
1862	207	2	0.060000	9.451294	4.248674	25.189147
1863	207	4	0.418000	7.724445	5.544725	24.694720
1864	208	1	-0.180000	24.034119	4.070150	20.386201
1865	208	5	0.145000	24.678365	2.755476	20.808628
1866	208	3	-0.683000	26.069809	2.899603	20.894090
1867	208	2	0.060000	24.441452	4.395143	19.405386
1868	208	2	0.060000	24.237196	4.855690	21.144582
1869	208	2	0.060000	22.935772	3.935879	20.293636
1870	208	2	0.060000	24.445688	1.977466	20.051232
1871	208	2	0.060000	24.258841	2.422880	21.785168
1872	208	4	0.418000	26.253468	3.385007	21.740569
1873	209	1	-0.180000	9.034355	8.211261	10.496253
1874	209	5	0.145000	10.060172	7.572254	9.568225
1875	209	3	-0.683000	10.746828	8.558672	8.847343
1876	209	2	0.060000	8.314941	8.818502	9.906983
1877	209	2	0.060000	9.543681	8.864389	11.236163
1878	209	2	0.060000	8.477101	7.419486	11.039874
1879	209	2	0.060000	9.535610	6.905964	8.851302
1880	209	2	0.060000	10.772401	6.951877	10.158237
1881	209	4	0.418000	11.404916	8.960887	9.472657
1882	210	1	-0.180000	26.195616	26.013952	15.000584
1883	210	5	0.145000	26.079831	27.529277	15.111249
1884	210	3	-0.683000	24.787583	27.946240	14.764219
1885	210	2	0.060000	25.958937	25.689284	13.965155
1886	210	2	0.060000	25.491709	25.524822	15.706786
1887	210	2	0.060000	27.230804	25.698601	15.249387
1888	210	2	0.060000	26.806039	28.000485	14.415784
1889	210	2	0.060000	26.331417	27.855358	16.145960
1890	210	4	0.418000	24.204118	27.737919	15.540134
1891	211	1	-0.180000	20.382629	8.968127	5.862428
1892	211	5	0.145000	18.995832	8.394940	5.597636
1893	211	3	-0.683000	18.008219	9.322499	5.956030
1894	211	2	0.060000	20.485411	9.233974	6.935880
1895	211	2	0.060000	20.544715	9.876246	5.243959
1896	211	2	0.060000	21.155105	8.214066	5.602358
1897	211	2	0.060000	18.860637	7.476086	6.206336
1898	211	2	0.060000	18.898585	8.115162	4.524081
1899	211	4	0.418000	17.982035	10.002805	5.233276
1900	212	1	-0.180000	2.732556	14.419701	14.398848
1901	212	5	0.145000	3.250279	15.621901	13.618755
1902	212	3	-0.683000	4.152484	16.357734	14.398989
1903	212	2	0.060000	2.236066	14.757924	15.333001
1904	212	2	0.060000	3.573230	13.741349	14.656840
1905	212	2	0.060000	1.997308	13.861584	13.781695
1906	212	2	0.060000	2.394226	16.276141	13.349998
1907	212	2	0.060000	3.735106	15.282889	12.675216
1908	212	4	0.418000	5.007467	15.852886	14.396383
1909	213	1	-0.180000	10.793424	27.028591	12.061073
1910	213	5	0.145000	9.772306	26.170428	11.324364
1911	213	3	-0.683000	8.746105	25.778471	12.194693
1912	213	2	0.060000	11.218989	26.462581	12.916682
1913	213	2	0.060000	10.311519	27.954969	12.439288
1914	213	2	0.060000	11.615748	27.308363	11.369356
1915	213	2	0.060000	10.276426	25.261228	10.934101
1916	213	2	0.060000	9.356725	26.733406	10.457991
1917	213	4	0.418000	8.156278	26.568521	12.312164
1918	214	1	-0.180000	2.553606	6.295383	17.497159
1919	214	5	0.145000	3.949787	5.706948	17.659293
1920	214	3	-0.683000	3.870502	4.368322	18.066709
1921	214	2	0.060000	1.997512	6.224350	18.455936
1922	214	2	0.060000	1.996415	5.744701	16.709923
1923	214	2	0.060000	2.629506	7.363366	17.202857
1924	214	2	0.060000	4.499158	6.283840	18.432904
1925	214	2	0.060000	4.511788	5.791718	16.701576
1926	214	4	0.418000	3.625374	3.840736	17.262073
1927	215	1	-0.180000	20.176694	22.240360	21.336084
1928	215	5	0.145000	18.705528	21.921677	21.099485
1929	215	3	-0.683000	18.568480	20.999777	20.052820
1930	215	2	0.060000	20.630577	22.650601	20.409137
1931	215	2	0.060000	20.723206	21.320719	21.634478
1932	215	2	0.060000	20.270812	22.992987	22.147045
1933	215	2	0.060000	18.171454	22.855754	20.824980
1934	215	2	0.060000	18.247557	21.524011	22.033496
1935	215	4	0.418000	18.811625	20.111297	20.423439
1936	216	1	-0.180000	2.986412	4.672487	11.135546
1937	216	5	0.145000	3.809298	3.601342	10.430298
1938	216	3	-0.683000	3.984282	3.931431	9.079516
1939	216	2	0.060000	1.997539	4.778947	10.641244
1940	216	2	0.060000	3.518659	5.646660	11.101564
1941	216	2	0.060000	2.829813	4.385769	12.196787
1942	216	2	0.060000	3.273136	2.631025	10.494340
1943	216	2	0.060000	4.794984	3.485000	10.935413
1944	216	4	0.418000	4.680575	4.638578	9.047985
1945	217	1	-0.180000	14.103664	25.756579	4.784132
1946	217	5	0.145000	14.399754	27.245197	4.919091
1947	217	3	-0.683000	13.281067	28.000972	4.542880
1948	217	2	0.060000	13.821581	25.518599	3.736595
1949	217	2	0.060000	13.270889	25.470214	5.460841
1950	217	2	0.060000	15.005831	25.169397	5.056668
1951	217	2	0.060000	15.248770	27.508151	4.253423
1952	217	2	0.060000	14.696584	27.480494	5.966364
1953	217	4	0.418000	12.638061	27.951427	5.297840
1954	218	1	-0.180000	11.859423	11.815886	8.984545
1955	218	5	0.145000	10.988581	12.059166	10.211050
1956	218	3	-0.683000	10.436523	10.853277	10.664100
1957	218	2	0.060000	11.256607	11.349091	8.176921
1958	218	2	0.060000	12.705045	11.144285	9.244025
1959	218	2	0.060000	12.267236	12.781332	8.617715
1960	218	2	0.060000	10.162932	12.749959	9.938665
1961	218	2	0.060000	11.590179	12.540492	11.015200
1962	218	4	0.418000	11.161150	10.371141	11.141944
1963	219	1	-0.180000	14.502093	22.359935	23.486008
1964	219	5	0.145000	16.000408	22.199161	23.260028
1965	219	3	-0.683000	16.405254	20.896791	23.582710
1966	219	2	0.060000	14.251396	22.137566	24.544895
1967	219	2	0.060000	13.939860	21.667537	22.824242
1968	219	2	0.060000	14.198633	23.402815	23.255188
1969	219	2	0.060000	16.544599	22.914328	23.912315
1970	219	2	0.060000	16.253000	22.436392	22.201646
1971	219	4	0.418000	16.120998	20.316214	22.829050
1972	220	1	-0.180000	24.929638	15.744852	16.474352
1973	220	5	0.145000	24.187969	17.008867	16.891553
1974	220	3	-0.683000	24.719075	18.125885	16.232471
1975	220	2	0.060000	26.010726	15.843559	16.708970
1976	220	2	0.060000	24.806603	15.572428	15.384129
1977	220	2	0.060000	24.519762	14.871707	17.024427
1978	220	2	0.060000	24.302803	17.152268	17.986695
1979	220	2	0.060000	23.101816	16.903371	16.669304
1980	220	4	0.418000	24.370299	18.099591	15.303204
1981	221	1	-0.180000	15.858533	14.880893	25.503505
1982	221	5	0.145000	14.696613	15.856812	25.642748
1983	221	3	-0.683000	13.526032	15.300636	25.109269
1984	221	2	0.060000	16.014591	14.625861	24.433859
1985	221	2	0.060000	15.646793	13.951574	26.073580
1986	221	2	0.060000	16.785681	15.343544	25.902645
1987	221	2	0.060000	14.935707	16.787511	25.086222
1988	221	2	0.060000	14.550083	16.123292	26.714088
1989	221	4	0.418000	13.194166	14.644116	25.776143
1990	222	1	-0.180000	20.593857	20.405136	7.904312
1991	222	5	0.145000	20.024790	19.112504	8.476265
1992	222	3	-0.683000	19.332757	18.403668	7.484885
1993	222	2	0.060000	19.774345	21.032233	7.493594
1994	222	2	0.060000	21.320140	20.177424	7.095538
1995	222	2	0.060000	21.114259	20.971498	8.705174
1996	222	2	0.060000	19.319269	19.358748	9.297660
1997	222	2	0.060000	20.845420	18.490821	8.900917
1998	222	4	0.418000	20.019834	17.973132	6.911791
1999	223	1	-0.180000	24.770038	11.468880	17.284008
2000	223	5	0.145000	25.970727	12.242574	17.814674
2001	223	3	-0.683000	27.146332	11.500641	17.636685
2002	223	2	0.060000	24.684496	10.493491	17.808259
2003	223	2	0.060000	24.883334	11.289099	16.193917
2004	223	2	0.060000	23.842004	12.053536	17.456903
2005	223	2	0.060000	25.829217	12.432845	18.899505
2006	223	2	0.060000	26.047299	13.226575	17.298795
2007	223	4	0.418000	27.386999	11.576128	16.676344
2008	224	1	-0.180000	26.859613	12.128398	3.325133
2009	224	5	0.145000	27.011532	11.741441	4.791097
2010	224	3	-0.683000	26.071731	12.423857	5.575492
2011	224	2	0.060000	26.992177	13.224618	3.205684
2012	224	2	0.060000	25.852432	11.839848	2.956650
2013	224	2	0.060000	27.627687	11.604276	2.718240
2014	224	2	0.060000	28.030935	12.016209	5.135200
2015	224	2	0.060000	26.892903	10.640303	4.908033
2016	224	4	0.418000	25.200565	11.968676	5.434943
2017	225	1	-0.180000	18.597475	25.204848	10.548027
2018	225	5	0.145000	18.690410	26.572905	11.212593
2019	225	3	-0.683000	17.548903	26.816791	11.988269
2020	225	2	0.060000	17.689258	25.152712	9.910875
2021	225	2	0.060000	18.548386	24.408035	11.320124
2022	225	2	0.060000	19.492924	25.035392	9.913661
2023	225	2	0.060000	18.761780	27.354077	10.426614
2024	225	2	0.060000	19.608936	26.629425	11.839783
2025	225	4	0.418000	17.653073	26.286491	12.821218
2026	226	1	-0.180000	24.361926	13.685048	7.849184
2027	226	5	0.145000	23.194671	13.033512	7.117828
2028	226	3	-0.683000	22.907907	13.732092	5.937175
2029	226	2	0.060000	24.119704	14.742947	8.085231
2030	226	2	0.060000	25.274738	13.651404	7.217443
2031	226	2	0.060000	24.560648	13.140850	8.796455
2032	226	2	0.060000	22.298184	13.055727	7.772735
2033	226	2	0.060000	23.432550	11.968741	6.894376
2034	226	4	0.418000	23.604126	13.473586	5.278140
2035	227	1	-0.180000	8.728243	17.792882	13.874641
2036	227	5	0.145000	7.306256	17.305871	13.624364
2037	227	3	-0.683000	7.290780	15.915489	13.448894
2038	227	2	0.060000	9.381791	17.512216	13.021622
2039	227	2	0.060000	9.128495	17.339586	14.806186
2040	227	2	0.060000	8.731690	18.897977	13.982881
2041	227	2	0.060000	6.914905	17.786560	12.703024
2042	227	2	0.060000	6.648448	17.600341	14.473381
2043	227	4	0.418000	7.383264	15.514285	14.352419
2044	228	1	-0.180000	19.373350	3.867562	4.777999
2045	228	5	0.145000	18.564299	2.991639	5.726713
2046	228	3	-0.683000	19.336000	1.907947	6.167487
2047	228	2	0.060000	19.716547	3.269061	3.907625
2048	228	2	0.060000	20.256928	4.286039	5.304898
2049	228	2	0.060000	18.742858	4.705550	4.413007
2050	228	2	0.060000	17.674003	2.601299	5.189969
2051	228	2	0.060000	18.208295	3.595879	6.591819
2052	228	4	0.418000	19.957968	2.263368	6.855023
2053	229	1	-0.180000	24.090031	11.140175	24.528649
2054	229	5	0.145000	24.695380	12.402797	23.927649
2055	229	3	-0.683000	24.284453	12.554637	22.596381
2056	229	2	0.060000	24.395530	10.252505	23.935141
2057	229	2	0.060000	22.981820	11.213006	24.533044
2058	229	2	0.060000	24.445749	11.015177	25.573064
2059	229	2	0.060000	25.802586	12.321849	23.952697
2060	229	2	0.060000	24.400486	13.290690	24.531749
2061	229	4	0.418000	23.349449	12.887612	22.624116
2062	230	1	-0.180000	26.131494	18.247383	21.698903
2063	230	5	0.145000	25.354758	18.532433	20.419335
2064	230	3	-0.683000	25.635563	19.825017	19.956121
2065	230	2	0.060000	25.867684	18.993745	22.477932
2066	230	2	0.060000	27.223328	18.295746	21.501380
2067	230	2	0.060000	25.878732	17.232505	22.071860
2068	230	2	0.060000	24.267196	18.457097	20.630570
2069	230	2	0.060000	25.608917	17.775038	19.643444
2070	230	4	0.418000	26.531610	19.785518	19.530195
2071	231	1	-0.180000	20.050725	9.287751	14.472598
2072	231	5	0.145000	18.594419	9.606412	14.157173
2073	231	3	-0.683000	17.795867	8.469185	14.339439
2074	231	2	0.060000	20.409948	8.464865	13.818873
2075	231	2	0.060000	20.152846	8.981327	15.535204
2076	231	2	0.060000	20.677241	10.187454	14.296602
2077	231	2	0.060000	18.515326	9.932506	13.098640
2078	231	2	0.060000	18.239316	10.441336	14.802973
2079	231	4	0.418000	17.671973	8.363314	15.318886
2080	232	1	-0.180000	24.232472	25.931028	23.067267
2081	232	5	0.145000	25.115420	27.142673	22.794902
2082	232	3	-0.683000	26.442503	26.869401	23.153180
2083	232	2	0.060000	24.284953	25.656412	24.142148
2084	232	2	0.060000	24.567797	25.068639	22.453022
2085	232	2	0.060000	23.179584	26.169233	22.807174
2086	232	2	0.060000	24.751545	28.000121	23.399439
2087	232	2	0.060000	25.050942	27.426278	21.719884
2088	232	4	0.418000	26.819274	26.299050	22.433029
2089	233	1	-0.180000	3.785841	17.568052	17.671589
2090	233	5	0.145000	3.101545	16.334587	17.095249
2091	233	3	-0.683000	1.994160	16.707992	16.321648
2092	233	2	0.060000	3.068439	18.145507	18.292410
2093	233	2	0.060000	4.161532	18.214730	16.850542
2094	233	2	0.060000	4.643198	17.258410	18.305643
2095	233	2	0.060000	2.753378	15.689636	17.929458
2096	233	2	0.060000	3.825423	15.748431	16.484777
2097	233	4	0.418000	2.351356	17.044655	15.458547
2098	234	1	-0.180000	18.776076	23.831310	18.346700
2099	234	5	0.145000	17.684229	24.892258	18.410930
2100	234	3	-0.683000	17.142543	24.957010	19.701889
2101	234	2	0.060000	18.361499	22.841451	18.632785
2102	234	2	0.060000	19.604659	24.094046	19.037985
2103	234	2	0.060000	19.176963	23.769018	17.313079
2104	234	2	0.060000	16.876269	24.625175	17.697520
2105	234	2	0.060000	18.097252	25.881737	18.109940
2106	234	4	0.418000	17.800255	25.447071	20.261469
2107	235	1	-0.180000	13.763660	2.645479	18.940475
2108	235	5	0.145000	15.248963	2.949332	19.093496
2109	235	3	-0.683000	15.739427	3.577772	17.940804
2110	235	2	0.060000	13.597976	1.994921	18.055680
2111	235	2	0.060000	13.192288	3.589168	18.812264
2112	235	2	0.060000	13.393468	2.121992	19.847052
2113	235	2	0.060000	15.800572	1.997324	19.243478
2114	235	2	0.060000	15.415831	3.589704	19.989226
2115	235	4	0.418000	15.433119	4.521450	17.979806
2116	236	1	-0.180000	17.700299	10.557505	18.272377
2117	236	5	0.145000	17.187057	9.123568	18.224685
2118	236	3	-0.683000	18.255053	8.227993	18.077983
2119	236	2	0.060000	18.264206	10.790430	17.344319
2120	236	2	0.060000	18.367443	10.695095	19.149556
2121	236	2	0.060000	16.843803	11.258813	18.359234
2122	236	2	0.060000	16.504645	9.011074	17.355925
2123	236	2	0.060000	16.609423	8.895443	19.149104
2124	236	4	0.418000	18.689490	8.156050	18.967906
2125	237	1	-0.180000	14.009782	12.040635	16.395162
2126	237	5	0.145000	14.212373	10.646387	15.814736
2127	237	3	-0.683000	15.424069	10.581444	15.113476
2128	237	2	0.060000	14.016258	12.795942	15.580908
2129	237	2	0.060000	14.820398	12.274893	17.117298
2130	237	2	0.060000	13.034004	12.088084	16.922958
2131	237	2	0.060000	13.381340	10.420911	15.113571
2132	237	2	0.060000	14.191233	9.888208	16.630192
2133	237	4	0.418000	16.143451	10.518643	15.794960
2134	238	1	-0.180000	26.951271	22.651945	7.473711
2135	238	5	0.145000	25.455414	22.886018	7.301993
2136	238	3	-0.683000	24.726443	21.903202	7.985269
2137	238	2	0.060000	27.224653	21.645178	7.092634
2138	238	2	0.060000	27.228121	22.724013	8.546845
2139	238	2	0.060000	27.517784	23.418781	6.904511
2140	238	2	0.060000	25.201409	22.833149	6.222283
2141	238	2	0.060000	25.184524	23.901267	7.670964
2142	238	4	0.418000	24.761688	22.141860	8.948428
2143	239	1	-0.180000	4.743714	26.389531	23.279014
2144	239	5	0.145000	5.165778	27.379590	22.200352
2145	239	3	-0.683000	5.658142	26.698370	21.078876
2146	239	2	0.060000	5.607039	25.754823	23.571171
2147	239	2	0.060000	3.924408	25.741158	22.902445
2148	239	2	0.060000	4.383137	26.941057	24.172751
2149	239	2	0.060000	5.968425	28.033482	22.601936
2150	239	2	0.060000	4.303354	28.025302	21.918335
2151	239	4	0.418000	4.868399	26.342447	20.593593
2152	240	1	-0.180000	6.801295	19.630147	8.518176
2153	240	5	0.145000	7.047134	19.239717	9.970413
2154	240	3	-0.683000	5.880516	18.708149	10.536653
2155	240	2	0.060000	5.979124	20.374480	8.458663
2156	240	2	0.060000	6.526248	18.733561	7.923250
2157	240	2	0.060000	7.723227	20.076496	8.089483
2158	240	2	0.060000	7.342949	20.143331	10.544053
2159	240	2	0.060000	7.881314	18.504338	10.030532
2160	240	4	0.418000	5.793673	17.781582	10.190524
2161	241	1	-0.180000	10.167240	27.375576	25.092488
2162	241	5	0.145000	9.831403	25.908188	24.856162
2163	241	3	-0.683000	8.473046	25.672157	25.107851
2164	241	2	0.060000	9.921905	27.657992	26.138237
2165	241	2	0.060000	9.587531	28.016853	24.395240
2166	241	2	0.060000	11.250868	27.544170	24.918448
2167	241	2	0.060000	10.436445	25.281893	25.545194
2168	241	2	0.060000	10.091195	25.622025	23.811714
2169	241	4	0.418000	7.974019	26.023104	24.324472
2170	242	1	-0.180000	14.992565	25.887533	24.470235
2171	242	5	0.145000	15.164733	27.329251	24.007987
2172	242	3	-0.683000	16.525338	27.648393	23.902654
2173	242	2	0.060000	15.492343	25.740639	25.451144
2174	242	2	0.060000	15.436494	25.192624	23.726271
2175	242	2	0.060000	13.912024	25.655638	24.578019
2176	242	2	0.060000	14.695324	28.007295	24.751625
2177	242	2	0.060000	14.650976	27.479429	23.031384
2178	242	4	0.418000	16.851425	27.228104	23.064263
2179	243	1	-0.180000	23.669781	2.957254	9.534629
2180	243	5	0.145000	23.199700	2.664722	10.954247
2181	243	3	-0.683000	22.895918	3.858304	11.623028
2182	243	2	0.060000	24.564098	3.615410	9.558420
2183	243	2	0.060000	22.861999	3.459029	8.960901
2184	243	2	0.060000	23.935085	2.007051	9.025030
2185	243	2	0.060000	24.010803	2.143199	11.504893
2186	243	2	0.060000	22.311749	1.993001	10.930005
2187	243	4	0.418000	22.014699	4.160050	11.279114
2188	244	1	-0.180000	9.464664	8.340766	15.009649
2189	244	5	0.145000	9.744571	9.181870	16.249028
2190	244	3	-0.683000	10.901016	8.726310	16.896555
2191	244	2	0.060000	9.343461	7.273927	15.293734
2192	244	2	0.060000	10.303665	8.433650	14.287913
2193	244	2	0.060000	8.531024	8.692143	14.521987
2194	244	2	0.060000	8.886098	9.095052	16.948008
2195	244	2	0.060000	9.851551	10.253438	15.965217
2196	244	4	0.418000	11.672412	9.057754	16.366492
2197	245	1	-0.180000	17.488515	19.394332	12.923613
2198	245	5	0.145000	18.418300	20.584535	12.721664
2199	245	3	-0.683000	17.699435	21.784684	12.805729
2200	245	2	0.060000	16.683263	19.407017	12.158795
2201	245	2	0.060000	17.032159	19.433903	13.935358
2202	245	2	0.060000	18.063533	18.449474	12.825838
2203	245	2	0.060000	18.882345	20.515860	11.715169
2204	245	2	0.060000	19.233730	20.563057	13.479862
2205	245	4	0.418000	17.528017	21.945945	13.770345
2206	246	1	-0.180000	11.369510	22.620634	18.417721
2207	246	5	0.145000	10.241719	22.608741	19.442323
2208	246	3	-0.683000	10.706225	22.125702	20.673216
2209	246	2	0.060000	11.779149	21.596038	18.291470
2210	246	2	0.060000	12.181769	23.300252	18.752099
2211	246	2	0.060000	10.982875	22.977188	17.439792
2212	246	2	0.060000	9.429886	21.942972	19.080709
2213	246	2	0.060000	9.821839	23.633757	19.557635
2214	246	4	0.418000	11.222205	22.863797	21.091373
2215	247	1	-0.180000	8.306147	23.933277	2.780441
2216	247	5	0.145000	9.710411	23.369132	2.958345
2217	247	3	-0.683000	9.649750	22.036163	3.386954
2218	247	2	0.060000	7.746656	23.869091	3.737723
2219	247	2	0.060000	7.761226	23.361484	1.999693
2220	247	2	0.060000	8.367041	24.997436	2.469283
2221	247	2	0.060000	10.247175	23.966788	3.725011
2222	247	2	0.060000	10.275592	23.447160	2.001927
2223	247	4	0.418000	9.416580	21.491995	2.589843
2224	248	1	-0.180000	3.949532	3.541784	6.095754
2225	248	5	0.145000	2.428066	3.612800	6.140051
2226	248	3	-0.683000	1.998999	4.943532	6.043896
2227	248	2	0.060000	4.382255	4.139414	6.925891
2228	248	2	0.060000	4.322058	3.938055	5.127432
2229	248	2	0.060000	4.278130	2.486472	6.202067
2230	248	2	0.060000	2.073034	3.191805	7.104313
2231	248	2	0.060000	1.994669	3.001557	5.316156
2232	248	4	0.418000	2.089968	5.202896	5.089785
2233	249	1	-0.180000	15.040356	26.934200	18.099673
2234	249	5	0.145000	15.077090	26.696787	16.594964
2235	249	3	-0.683000	16.304902	27.116040	16.064969
2236	249	2	0.060000	15.198410	28.011556	18.318444
2237	249	2	0.060000	15.834220	26.339592	18.599348
2238	249	2	0.060000	14.052981	26.625611	18.503192
2239	249	2	0.060000	14.263105	27.280424	16.115503
2240	249	2	0.060000	14.904070	25.618711	16.375717
2241	249	4	0.418000	16.969104	26.416226	16.299429
2242	250	1	-0.180000	8.341424	12.528412	7.889979
2243	250	5	0.145000	7.429661	11.672848	8.760934
2244	250	3	-0.683000	8.124766	11.208884	9.885993
2245	250	2	0.060000	9.226034	11.937598	7.570693
2246	250	2	0.060000	8.682980	13.420641	8.456301
2247	250	2	0.060000	7.788654	12.865677	6.987948
2248	250	2	0.060000	7.080127	10.799031	8.171565
2249	250	2	0.060000	6.535740	12.261447	9.068682
2250	250	4	0.418000	8.187315	11.973519	10.516305

Bonds

1	2	1	2
2	1	1	4
3	1	1	5
4	1	1	6
5	5	2	3
6	3	2	7
7	3	2	8
8	4	3	9
9	2	10	11
10	1	10	13
11	1	10	14
12	1	10	15
13	5	11	12
14	3	11	16
15	3	11	17
16	4	12	18
17	2	19	20
18	1	19	22
19	1	19	23
20	1	19	24
21	5	20	21
22	3	20	25
23	3	20	26
24	4	21	27
25	2	28	29
26	1	28	31
27	1	28	32
28	1	28	33
29	5	29	30
30	3	29	34
31	3	29	35
32	4	30	36
33	2	37	38
34	1	37	40
35	1	37	41
36	1	37	42
37	5	38	39
38	3	38	43
39	3	38	44
40	4	39	45
41	2	46	47
42	1	46	49
43	1	46	50
44	1	46	51
45	5	47	48
46	3	47	52
47	3	47	53
48	4	48	54
49	2	55	56
50	1	55	58
51	1	55	59
52	1	55	60
53	5	56	57
54	3	56	61
55	3	56	62
56	4	57	63
57	2	64	65
58	1	64	67
59	1	64	68
60	1	64	69
61	5	65	66
62	3	65	70
63	3	65	71
64	4	66	72
65	2	73	74
66	1	73	76
67	1	73	77
68	1	73	78
69	5	74	75
70	3	74	79
71	3	74	80
72	4	75	81
73	2	82	83
74	1	82	85
75	1	82	86
76	1	82	87
77	5	83	84
78	3	83	88
79	3	83	89
80	4	84	90
81	2	91	92
82	1	91	94
83	1	91	95
84	1	91	96
85	5	92	93
86	3	92	97
87	3	92	98
88	4	93	99
89	2	100	101
90	1	100	103
91	1	100	104
92	1	100	105
93	5	101	102
94	3	101	106
95	3	101	107
96	4	102	108
97	2	109	110
98	1	109	112
99	1	109	113
100	1	109	114
101	5	110	111
102	3	110	115
103	3	110	116
104	4	111	117
105	2	118	119
106	1	118	121
107	1	118	122
108	1	118	123
109	5	119	120
110	3	119	124
111	3	119	125
112	4	120	126
113	2	127	128
114	1	127	130
115	1	127	131
116	1	127	132
117	5	128	129
118	3	128	133
119	3	128	134
120	4	129	135
121	2	136	137
122	1	136	139
123	1	136	140
124	1	136	141
125	5	137	138
126	3	137	142
127	3	137	143
128	4	138	144
129	2	145	146
130	1	145	148
131	1	145	149
132	1	145	150
133	5	146	147
134	3	146	151
135	3	146	152
136	4	147	153
137	2	154	155
138	1	154	157
139	1	154	158
140	1	154	159
141	5	155	156
142	3	155	160
143	3	155	161
144	4	156	162
145	2	163	164
146	1	163	166
147	1	163	167
148	1	163	168
149	5	164	165
150	3	164	169
151	3	164	170
152	4	165	171
153	2	172	173
154	1	172	175
155	1	172	176
156	1	172	177
157	5	173	174
158	3	173	178
159	3	173	179
160	4	174	180
161	2	181	182
162	1	181	184
163	1	181	185
164	1	181	186
165	5	182	183
166	3	182	187
167	3	182	188
168	4	183	189
169	2	190	191
170	1	190	193
171	1	190	194
172	1	190	195
173	5	191	192
174	3	191	196
175	3	191	197
176	4	192	198
177	2	199	200
178	1	199	202
179	1	199	203
180	1	199	204
181	5	200	201
182	3	200	205
183	3	200	206
184	4	201	207
185	2	208	209
186	1	208	211
187	1	208	212
188	1	208	213
189	5	209	210
190	3	209	214
191	3	209	215
192	4	210	216
193	2	217	218
194	1	217	220
195	1	217	221
196	1	217	222
197	5	218	219
198	3	218	223
199	3	218	224
200	4	219	225
201	2	226	227
202	1	226	229
203	1	226	230
204	1	226	231
205	5	227	228
206	3	227	232
207	3	227	233
208	4	228	234
209	2	235	236
210	1	235	238
211	1	235	239
212	1	235	240
213	5	236	237
214	3	236	241
215	3	236	242
216	4	237	243
217	2	244	245
218	1	244	247
219	1	244	248
220	1	244	249
221	5	245	246
222	3	245	250
223	3	245	251
224	4	246	252
225	2	253	254
226	1	253	256
227	1	253	257
228	1	253	258
229	5	254	255
230	3	254	259
231	3	254	260
232	4	255	261
233	2	262	263
234	1	262	265
235	1	262	266
236	1	262	267
237	5	263	264
238	3	263	268
239	3	263	269
240	4	264	270
241	2	271	272
242	1	271	274
243	1	271	275
244	1	271	276
245	5	272	273
246	3	272	277
247	3	272	278
248	4	273	279
249	2	280	281
250	1	280	283
251	1	280	284
252	1	280	285
253	5	281	282
254	3	281	286
255	3	281	287
256	4	282	288
257	2	289	290
258	1	289	292
259	1	289	293
260	1	289	294
261	5	290	291
262	3	290	295
263	3	290	296
264	4	291	297
265	2	298	299
266	1	298	301
267	1	298	302
268	1	298	303
269	5	299	300
270	3	299	304
271	3	299	305
272	4	300	306
273	2	307	308
274	1	307	310
275	1	307	311
276	1	307	312
277	5	308	309
278	3	308	313
279	3	308	314
280	4	309	315
281	2	316	317
282	1	316	319
283	1	316	320
284	1	316	321
285	5	317	318
286	3	317	322
287	3	317	323
288	4	318	324
289	2	325	326
290	1	325	328
291	1	325	329
292	1	325	330
293	5	326	327
294	3	326	331
295	3	326	332
296	4	327	333
297	2	334	335
298	1	334	337
299	1	334	338
300	1	334	339
301	5	335	336
302	3	335	340
303	3	335	341
304	4	336	342
305	2	343	344
306	1	343	346
307	1	343	347
308	1	343	348
309	5	344	345
310	3	344	349
311	3	344	350
312	4	345	351
313	2	352	353
314	1	352	355
315	1	352	356
316	1	352	357
317	5	353	354
318	3	353	358
319	3	353	359
320	4	354	360
321	2	361	362
322	1	361	364
323	1	361	365
324	1	361	366
325	5	362	363
326	3	362	367
327	3	362	368
328	4	363	369
329	2	370	371
330	1	370	373
331	1	370	374
332	1	370	375
333	5	371	372
334	3	371	376
335	3	371	377
336	4	372	378
337	2	379	380
338	1	379	382
339	1	379	383
340	1	379	384
341	5	380	381
342	3	380	385
343	3	380	386
344	4	381	387
345	2	388	389
346	1	388	391
347	1	388	392
348	1	388	393
349	5	389	390
350	3	389	394
351	3	389	395
352	4	390	396
353	2	397	398
354	1	397	400
355	1	397	401
356	1	397	402
357	5	398	399
358	3	398	403
359	3	398	404
360	4	399	405
361	2	406	407
362	1	406	409
363	1	406	410
364	1	406	411
365	5	407	408
366	3	407	412
367	3	407	413
368	4	408	414
369	2	415	416
370	1	415	418
371	1	415	419
372	1	415	420
373	5	416	417
374	3	416	421
375	3	416	422
376	4	417	423
377	2	424	425
378	1	424	427
379	1	424	428
380	1	424	429
381	5	425	426
382	3	425	430
383	3	425	431
384	4	426	432
385	2	433	434
386	1	433	436
387	1	433	437
388	1	433	438
389	5	434	435
390	3	434	439
391	3	434	440
392	4	435	441
393	2	442	443
394	1	442	445
395	1	442	446
396	1	442	447
397	5	443	444
398	3	443	448
399	3	443	449
400	4	444	450
401	2	451	452
402	1	451	454
403	1	451	455
404	1	451	456
405	5	452	453
406	3	452	457
407	3	452	458
408	4	453	459
409	2	460	461
410	1	460	463
411	1	460	464
412	1	460	465
413	5	461	462
414	3	461	466
415	3	461	467
416	4	462	468
417	2	469	470
418	1	469	472
419	1	469	473
420	1	469	474
421	5	470	471
422	3	470	475
423	3	470	476
424	4	471	477
425	2	478	479
426	1	478	481
427	1	478	482
428	1	478	483
429	5	479	480
430	3	479	484
431	3	479	485
432	4	480	486
433	2	487	488
434	1	487	490
435	1	487	491
436	1	487	492
437	5	488	489
438	3	488	493
439	3	488	494
440	4	489	495
441	2	496	497
442	1	496	499
443	1	496	500
444	1	496	501
445	5	497	498
446	3	497	502
447	3	497	503
448	4	498	504
449	2	505	506
450	1	505	508
451	1	505	509
452	1	505	510
453	5	506	507
454	3	506	511
455	3	506	512
456	4	507	513
457	2	514	515
458	1	514	517
459	1	514	518
460	1	514	519
461	5	515	516
462	3	515	520
463	3	515	521
464	4	516	522
465	2	523	524
466	1	523	526
467	1	523	527
468	1	523	528
469	5	524	525
470	3	524	529
471	3	524	530
472	4	525	531
473	2	532	533
474	1	532	535
475	1	532	536
476	1	532	537
477	5	533	534
478	3	533	538
479	3	533	539
480	4	534	540
481	2	541	542
482	1	541	544
483	1	541	545
484	1	541	546
485	5	542	543
486	3	542	547
487	3	542	548
488	4	543	549
489	2	550	551
490	1	550	553
491	1	550	554
492	1	550	555
493	5	551	552
494	3	551	556
495	3	551	557
496	4	552	558
497	2	559	560
498	1	559	562
499	1	559	563
500	1	559	564
501	5	560	561
502	3	560	565
503	3	560	566
504	4	561	567
505	2	568	569
506	1	568	571
507	1	568	572
508	1	568	573
509	5	569	570
510	3	569	574
511	3	569	575
512	4	570	576
513	2	577	578
514	1	577	580
515	1	577	581
516	1	577	582
517	5	578	579
518	3	578	583
519	3	578	584
520	4	579	585
521	2	586	587
522	1	586	589
523	1	586	590
524	1	586	591
525	5	587	588
526	3	587	592
527	3	587	593
528	4	588	594
529	2	595	596
530	1	595	598
531	1	595	599
532	1	595	600
533	5	596	597
534	3	596	601
535	3	596	602
536	4	597	603
537	2	604	605
538	1	604	607
539	1	604	608
540	1	604	609
541	5	605	606
542	3	605	610
543	3	605	611
544	4	606	612
545	2	613	614
546	1	613	616
547	1	613	617
548	1	613	618
549	5	614	615
550	3	614	619
551	3	614	620
552	4	615	621
553	2	622	623
554	1	622	625
555	1	622	626
556	1	622	627
557	5	623	624
558	3	623	628
559	3	623	629
560	4	624	630
561	2	631	632
562	1	631	634
563	1	631	635
564	1	631	636
565	5	632	633
566	3	632	637
567	3	632	638
568	4	633	639
569	2	640	641
570	1	640	643
571	1	640	644
572	1	640	645
573	5	641	642
574	3	641	646
575	3	641	647
576	4	642	648
577	2	649	650
578	1	649	652
579	1	649	653
580	1	649	654
581	5	650	651
582	3	650	655
583	3	650	656
584	4	651	657
585	2	658	659
586	1	658	661
587	1	658	662
588	1	658	663
589	5	659	660
590	3	659	664
591	3	659	665
592	4	660	666
593	2	667	668
594	1	667	670
595	1	667	671
596	1	667	672
597	5	668	669
598	3	668	673
599	3	668	674
600	4	669	675
601	2	676	677
602	1	676	679
603	1	676	680
604	1	676	681
605	5	677	678
606	3	677	682
607	3	677	683
608	4	678	684
609	2	685	686
610	1	685	688
611	1	685	689
612	1	685	690
613	5	686	687
614	3	686	691
615	3	686	692
616	4	687	693
617	2	694	695
618	1	694	697
619	1	694	698
620	1	694	699
621	5	695	696
622	3	695	700
623	3	695	701
624	4	696	702
625	2	703	704
626	1	703	706
627	1	703	707
628	1	703	708
629	5	704	705
630	3	704	709
631	3	704	710
632	4	705	711
633	2	712	713
634	1	712	715
635	1	712	716
636	1	712	717
637	5	713	714
638	3	713	718
639	3	713	719
640	4	714	720
641	2	721	722
642	1	721	724
643	1	721	725
644	1	721	726
645	5	722	723
646	3	722	727
647	3	722	728
648	4	723	729
649	2	730	731
650	1	730	733
651	1	730	734
652	1	730	735
653	5	731	732
654	3	731	736
655	3	731	737
656	4	732	738
657	2	739	740
658	1	739	742
659	1	739	743
660	1	739	744
661	5	740	741
662	3	740	745
663	3	740	746
664	4	741	747
665	2	748	749
666	1	748	751
667	1	748	752
668	1	748	753
669	5	749	750
670	3	749	754
671	3	749	755
672	4	750	756
673	2	757	758
674	1	757	760
675	1	757	761
676	1	757	762
677	5	758	759
678	3	758	763
679	3	758	764
680	4	759	765
681	2	766	767
682	1	766	769
683	1	766	770
684	1	766	771
685	5	767	768
686	3	767	772
687	3	767	773
688	4	768	774
689	2	775	776
690	1	775	778
691	1	775	779
692	1	775	780
693	5	776	777
694	3	776	781
695	3	776	782
696	4	777	783
697	2	784	785
698	1	784	787
699	1	784	788
700	1	784	789
701	5	785	786
702	3	785	790
703	3	785	791
704	4	786	792
705	2	793	794
706	1	793	796
707	1	793	797
708	1	793	798
709	5	794	795
710	3	794	799
711	3	794	800
712	4	795	801
713	2	802	803
714	1	802	805
715	1	802	806
716	1	802	807
717	5	803	804
718	3	803	808
719	3	803	809
720	4	804	810
721	2	811	812
722	1	811	814
723	1	811	815
724	1	811	816
725	5	812	813
726	3	812	817
727	3	812	818
728	4	813	819
729	2	820	821
730	1	820	823
731	1	820	824
732	1	820	825
733	5	821	822
734	3	821	826
735	3	821	827
736	4	822	828
737	2	829	830
738	1	829	832
739	1	829	833
740	1	829	834
741	5	830	831
742	3	830	835
743	3	830	836
744	4	831	837
745	2	838	839
746	1	838	841
747	1	838	842
748	1	838	843
749	5	839	840
750	3	839	844
751	3	839	845
752	4	840	846
753	2	847	848
754	1	847	850
755	1	847	851
756	1	847	852
757	5	848	849
758	3	848	853
759	3	848	854
760	4	849	855
761	2	856	857
762	1	856	859
763	1	856	860
764	1	856	861
765	5	857	858
766	3	857	862
767	3	857	863
768	4	858	864
769	2	865	866
770	1	865	868
771	1	865	869
772	1	865	870
773	5	866	867
774	3	866	871
775	3	866	872
776	4	867	873
777	2	874	875
778	1	874	877
779	1	874	878
780	1	874	879
781	5	875	876
782	3	875	880
783	3	875	881
784	4	876	882
785	2	883	884
786	1	883	886
787	1	883	887
788	1	883	888
789	5	884	885
790	3	884	889
791	3	884	890
792	4	885	891
793	2	892	893
794	1	892	895
795	1	892	896
796	1	892	897
797	5	893	894
798	3	893	898
799	3	893	899
800	4	894	900
801	2	901	902
802	1	901	904
803	1	901	905
804	1	901	906
805	5	902	903
806	3	902	907
807	3	902	908
808	4	903	909
809	2	910	911
810	1	910	913
811	1	910	914
812	1	910	915
813	5	911	912
814	3	911	916
815	3	911	917
816	4	912	918
817	2	919	920
818	1	919	922
819	1	919	923
820	1	919	924
821	5	920	921
822	3	920	925
823	3	920	926
824	4	921	927
825	2	928	929
826	1	928	931
827	1	928	932
828	1	928	933
829	5	929	930
830	3	929	934
831	3	929	935
832	4	930	936
833	2	937	938
834	1	937	940
835	1	937	941
836	1	937	942
837	5	938	939
838	3	938	943
839	3	938	944
840	4	939	945
841	2	946	947
842	1	946	949
843	1	946	950
844	1	946	951
845	5	947	948
846	3	947	952
847	3	947	953
848	4	948	954
849	2	955	956
850	1	955	958
851	1	955	959
852	1	955	960
853	5	956	957
854	3	956	961
855	3	956	962
856	4	957	963
857	2	964	965
858	1	964	967
859	1	964	968
860	1	964	969
861	5	965	966
862	3	965	970
863	3	965	971
864	4	966	972
865	2	973	974
866	1	973	976
867	1	973	977
868	1	973	978
869	5	974	975
870	3	974	979
871	3	974	980
872	4	975	981
873	2	982	983
874	1	982	985
875	1	982	986
876	1	982	987
877	5	983	984
878	3	983	988
879	3	983	989
880	4	984	990
881	2	991	992
882	1	991	994
883	1	991	995
884	1	991	996
885	5	992	993
886	3	992	997
887	3	992	998
888	4	993	999
889	2	1000	1001
890	1	1000	1003
891	1	1000	1004
892	1	1000	1005
893	5	1001	1002
894	3	1001	1006
895	3	1001	1007
896	4	1002	1008
897	2	1009	1010
898	1	1009	1012
899	1	1009	1013
900	1	1009	1014
901	5	1010	1011
902	3	1010	1015
903	3	1010	1016
904	4	1011	1017
905	2	1018	1019
906	1	1018	1021
907	1	1018	1022
908	1	1018	1023
909	5	1019	1020
910	3	1019	1024
911	3	1019	1025
912	4	1020	1026
913	2	1027	1028
914	1	1027	1030
915	1	1027	1031
916	1	1027	1032
917	5	1028	1029
918	3	1028	1033
919	3	1028	1034
920	4	1029	1035
921	2	1036	1037
922	1	1036	1039
923	1	1036	1040
924	1	1036	1041
925	5	1037	1038
926	3	1037	1042
927	3	1037	1043
928	4	1038	1044
929	2	1045	1046
930	1	1045	1048
931	1	1045	1049
932	1	1045	1050
933	5	1046	1047
934	3	1046	1051
935	3	1046	1052
936	4	1047	1053
937	2	1054	1055
938	1	1054	1057
939	1	1054	1058
940	1	1054	1059
941	5	1055	1056
942	3	1055	1060
943	3	1055	1061
944	4	1056	1062
945	2	1063	1064
946	1	1063	1066
947	1	1063	1067
948	1	1063	1068
949	5	1064	1065
950	3	1064	1069
951	3	1064	1070
952	4	1065	1071
953	2	1072	1073
954	1	1072	1075
955	1	1072	1076
956	1	1072	1077
957	5	1073	1074
958	3	1073	1078
959	3	1073	1079
960	4	1074	1080
961	2	1081	1082
962	1	1081	1084
963	1	1081	1085
964	1	1081	1086
965	5	1082	1083
966	3	1082	1087
967	3	1082	1088
968	4	1083	1089
969	2	1090	1091
970	1	1090	1093
971	1	1090	1094
972	1	1090	1095
973	5	1091	1092
974	3	1091	1096
975	3	1091	1097
976	4	1092	1098
977	2	1099	1100
978	1	1099	1102
979	1	1099	1103
980	1	1099	1104
981	5	1100	1101
982	3	1100	1105
983	3	1100	1106
984	4	1101	1107
985	2	1108	1109
986	1	1108	1111
987	1	1108	1112
988	1	1108	1113
989	5	1109	1110
990	3	1109	1114
991	3	1109	1115
992	4	1110	1116
993	2	1117	1118
994	1	1117	1120
995	1	1117	1121
996	1	1117	1122
997	5	1118	1119
998	3	1118	1123
999	3	1118	1124
1000	4	1119	1125
1001	2	1126	1127
1002	1	1126	1129
1003	1	1126	1130
1004	1	1126	1131
1005	5	1127	1128
1006	3	1127	1132
1007	3	1127	1133
1008	4	1128	1134
1009	2	1135	1136
1010	1	1135	1138
1011	1	1135	1139
1012	1	1135	1140
1013	5	1136	1137
1014	3	1136	1141
1015	3	1136	1142
1016	4	1137	1143
1017	2	1144	1145
1018	1	1144	1147
1019	1	1144	1148
1020	1	1144	1149
1021	5	1145	1146
1022	3	1145	1150
1023	3	1145	1151
1024	4	1146	1152
1025	2	1153	1154
1026	1	1153	1156
1027	1	1153	1157
1028	1	1153	1158
1029	5	1154	1155
1030	3	1154	1159
1031	3	1154	1160
1032	4	1155	1161
1033	2	1162	1163
1034	1	1162	1165
1035	1	1162	1166
1036	1	1162	1167
1037	5	1163	1164
1038	3	1163	1168
1039	3	1163	1169
1040	4	1164	1170
1041	2	1171	1172
1042	1	1171	1174
1043	1	1171	1175
1044	1	1171	1176
1045	5	1172	1173
1046	3	1172	1177
1047	3	1172	1178
1048	4	1173	1179
1049	2	1180	1181
1050	1	1180	1183
1051	1	1180	1184
1052	1	1180	1185
1053	5	1181	1182
1054	3	1181	1186
1055	3	1181	1187
1056	4	1182	1188
1057	2	1189	1190
1058	1	1189	1192
1059	1	1189	1193
1060	1	1189	1194
1061	5	1190	1191
1062	3	1190	1195
1063	3	1190	1196
1064	4	1191	1197
1065	2	1198	1199
1066	1	1198	1201
1067	1	1198	1202
1068	1	1198	1203
1069	5	1199	1200
1070	3	1199	1204
1071	3	1199	1205
1072	4	1200	1206
1073	2	1207	1208
1074	1	1207	1210
1075	1	1207	1211
1076	1	1207	1212
1077	5	1208	1209
1078	3	1208	1213
1079	3	1208	1214
1080	4	1209	1215
1081	2	1216	1217
1082	1	1216	1219
1083	1	1216	1220
1084	1	1216	1221
1085	5	1217	1218
1086	3	1217	1222
1087	3	1217	1223
1088	4	1218	1224
1089	2	1225	1226
1090	1	1225	1228
1091	1	1225	1229
1092	1	1225	1230
1093	5	1226	1227
1094	3	1226	1231
1095	3	1226	1232
1096	4	1227	1233
1097	2	1234	1235
1098	1	1234	1237
1099	1	1234	1238
1100	1	1234	1239
1101	5	1235	1236
1102	3	1235	1240
1103	3	1235	1241
1104	4	1236	1242
1105	2	1243	1244
1106	1	1243	1246
1107	1	1243	1247
1108	1	1243	1248
1109	5	1244	1245
1110	3	1244	1249
1111	3	1244	1250
1112	4	1245	1251
1113	2	1252	1253
1114	1	1252	1255
1115	1	1252	1256
1116	1	1252	1257
1117	5	1253	1254
1118	3	1253	1258
1119	3	1253	1259
1120	4	1254	1260
1121	2	1261	1262
1122	1	1261	1264
1123	1	1261	1265
1124	1	1261	1266
1125	5	1262	1263
1126	3	1262	1267
1127	3	1262	1268
1128	4	1263	1269
1129	2	1270	1271
1130	1	1270	1273
1131	1	1270	1274
1132	1	1270	1275
1133	5	1271	1272
1134	3	1271	1276
1135	3	1271	1277
1136	4	1272	1278
1137	2	1279	1280
1138	1	1279	1282
1139	1	1279	1283
1140	1	1279	1284
1141	5	1280	1281
1142	3	1280	1285
1143	3	1280	1286
1144	4	1281	1287
1145	2	1288	1289
1146	1	1288	1291
1147	1	1288	1292
1148	1	1288	1293
1149	5	1289	1290
1150	3	1289	1294
1151	3	1289	1295
1152	4	1290	1296
1153	2	1297	1298
1154	1	1297	1300
1155	1	1297	1301
1156	1	1297	1302
1157	5	1298	1299
1158	3	1298	1303
1159	3	1298	1304
1160	4	1299	1305
1161	2	1306	1307
1162	1	1306	1309
1163	1	1306	1310
1164	1	1306	1311
1165	5	1307	1308
1166	3	1307	1312
1167	3	1307	1313
1168	4	1308	1314
1169	2	1315	1316
1170	1	1315	1318
1171	1	1315	1319
1172	1	1315	1320
1173	5	1316	1317
1174	3	1316	1321
1175	3	1316	1322
1176	4	1317	1323
1177	2	1324	1325
1178	1	1324	1327
1179	1	1324	1328
1180	1	1324	1329
1181	5	1325	1326
1182	3	1325	1330
1183	3	1325	1331
1184	4	1326	1332
1185	2	1333	1334
1186	1	1333	1336
1187	1	1333	1337
1188	1	1333	1338
1189	5	1334	1335
1190	3	1334	1339
1191	3	1334	1340
1192	4	1335	1341
1193	2	1342	1343
1194	1	1342	1345
1195	1	1342	1346
1196	1	1342	1347
1197	5	1343	1344
1198	3	1343	1348
1199	3	1343	1349
1200	4	1344	1350
1201	2	1351	1352
1202	1	1351	1354
1203	1	1351	1355
1204	1	1351	1356
1205	5	1352	1353
1206	3	1352	1357
1207	3	1352	1358
1208	4	1353	1359
1209	2	1360	1361
1210	1	1360	1363
1211	1	1360	1364
1212	1	1360	1365
1213	5	1361	1362
1214	3	1361	1366
1215	3	1361	1367
1216	4	1362	1368
1217	2	1369	1370
1218	1	1369	1372
1219	1	1369	1373
1220	1	1369	1374
1221	5	1370	1371
1222	3	1370	1375
1223	3	1370	1376
1224	4	1371	1377
1225	2	1378	1379
1226	1	1378	1381
1227	1	1378	1382
1228	1	1378	1383
1229	5	1379	1380
1230	3	1379	1384
1231	3	1379	1385
1232	4	1380	1386
1233	2	1387	1388
1234	1	1387	1390
1235	1	1387	1391
1236	1	1387	1392
1237	5	1388	1389
1238	3	1388	1393
1239	3	1388	1394
1240	4	1389	1395
1241	2	1396	1397
1242	1	1396	1399
1243	1	1396	1400
1244	1	1396	1401
1245	5	1397	1398
1246	3	1397	1402
1247	3	1397	1403
1248	4	1398	1404
1249	2	1405	1406
1250	1	1405	1408
1251	1	1405	1409
1252	1	1405	1410
1253	5	1406	1407
1254	3	1406	1411
1255	3	1406	1412
1256	4	1407	1413
1257	2	1414	1415
1258	1	1414	1417
1259	1	1414	1418
1260	1	1414	1419
1261	5	1415	1416
1262	3	1415	1420
1263	3	1415	1421
1264	4	1416	1422
1265	2	1423	1424
1266	1	1423	1426
1267	1	1423	1427
1268	1	1423	1428
1269	5	1424	1425
1270	3	1424	1429
1271	3	1424	1430
1272	4	1425	1431
1273	2	1432	1433
1274	1	1432	1435
1275	1	1432	1436
1276	1	1432	1437
1277	5	1433	1434
1278	3	1433	1438
1279	3	1433	1439
1280	4	1434	1440
1281	2	1441	1442
1282	1	1441	1444
1283	1	1441	1445
1284	1	1441	1446
1285	5	1442	1443
1286	3	1442	1447
1287	3	1442	1448
1288	4	1443	1449
1289	2	1450	1451
1290	1	1450	1453
1291	1	1450	1454
1292	1	1450	1455
1293	5	1451	1452
1294	3	1451	1456
1295	3	1451	1457
1296	4	1452	1458
1297	2	1459	1460
1298	1	1459	1462
1299	1	1459	1463
1300	1	1459	1464
1301	5	1460	1461
1302	3	1460	1465
1303	3	1460	1466
1304	4	1461	1467
1305	2	1468	1469
1306	1	1468	1471
1307	1	1468	1472
1308	1	1468	1473
1309	5	1469	1470
1310	3	1469	1474
1311	3	1469	1475
1312	4	1470	1476
1313	2	1477	1478
1314	1	1477	1480
1315	1	1477	1481
1316	1	1477	1482
1317	5	1478	1479
1318	3	1478	1483
1319	3	1478	1484
1320	4	1479	1485
1321	2	1486	1487
1322	1	1486	1489
1323	1	1486	1490
1324	1	1486	1491
1325	5	1487	1488
1326	3	1487	1492
1327	3	1487	1493
1328	4	1488	1494
1329	2	1495	1496
1330	1	1495	1498
1331	1	1495	1499
1332	1	1495	1500
1333	5	1496	1497
1334	3	1496	1501
1335	3	1496	1502
1336	4	1497	1503
1337	2	1504	1505
1338	1	1504	1507
1339	1	1504	1508
1340	1	1504	1509
1341	5	1505	1506
1342	3	1505	1510
1343	3	1505	1511
1344	4	1506	1512
1345	2	1513	1514
1346	1	1513	1516
1347	1	1513	1517
1348	1	1513	1518
1349	5	1514	1515
1350	3	1514	1519
1351	3	1514	1520
1352	4	1515	1521
1353	2	1522	1523
1354	1	1522	1525
1355	1	1522	1526
1356	1	1522	1527
1357	5	1523	1524
1358	3	1523	1528
1359	3	1523	1529
1360	4	1524	1530
1361	2	1531	1532
1362	1	1531	1534
1363	1	1531	1535
1364	1	1531	1536
1365	5	1532	1533
1366	3	1532	1537
1367	3	1532	1538
1368	4	1533	1539
1369	2	1540	1541
1370	1	1540	1543
1371	1	1540	1544
1372	1	1540	1545
1373	5	1541	1542
1374	3	1541	1546
1375	3	1541	1547
1376	4	1542	1548
1377	2	1549	1550
1378	1	1549	1552
1379	1	1549	1553
1380	1	1549	1554
1381	5	1550	1551
1382	3	1550	1555
1383	3	1550	1556
1384	4	1551	1557
1385	2	1558	1559
1386	1	1558	1561
1387	1	1558	1562
1388	1	1558	1563
1389	5	1559	1560
1390	3	1559	1564
1391	3	1559	1565
1392	4	1560	1566
1393	2	1567	1568
1394	1	1567	1570
1395	1	1567	1571
1396	1	1567	1572
1397	5	1568	1569
1398	3	1568	1573
1399	3	1568	1574
1400	4	1569	1575
1401	2	1576	1577
1402	1	1576	1579
1403	1	1576	1580
1404	1	1576	1581
1405	5	1577	1578
1406	3	1577	1582
1407	3	1577	1583
1408	4	1578	1584
1409	2	1585	1586
1410	1	1585	1588
1411	1	1585	1589
1412	1	1585	1590
1413	5	1586	1587
1414	3	1586	1591
1415	3	1586	1592
1416	4	1587	1593
1417	2	1594	1595
1418	1	1594	1597
1419	1	1594	1598
1420	1	1594	1599
1421	5	1595	1596
1422	3	1595	1600
1423	3	1595	1601
1424	4	1596	1602
1425	2	1603	1604
1426	1	1603	1606
1427	1	1603	1607
1428	1	1603	1608
1429	5	1604	1605
1430	3	1604	1609
1431	3	1604	1610
1432	4	1605	1611
1433	2	1612	1613
1434	1	1612	1615
1435	1	1612	1616
1436	1	1612	1617
1437	5	1613	1614
1438	3	1613	1618
1439	3	1613	1619
1440	4	1614	1620
1441	2	1621	1622
1442	1	1621	1624
1443	1	1621	1625
1444	1	1621	1626
1445	5	1622	1623
1446	3	1622	1627
1447	3	1622	1628
1448	4	1623	1629
1449	2	1630	1631
1450	1	1630	1633
1451	1	1630	1634
1452	1	1630	1635
1453	5	1631	1632
1454	3	1631	1636
1455	3	1631	1637
1456	4	1632	1638
1457	2	1639	1640
1458	1	1639	1642
1459	1	1639	1643
1460	1	1639	1644
1461	5	1640	1641
1462	3	1640	1645
1463	3	1640	1646
1464	4	1641	1647
1465	2	1648	1649
1466	1	1648	1651
1467	1	1648	1652
1468	1	1648	1653
1469	5	1649	1650
1470	3	1649	1654
1471	3	1649	1655
1472	4	1650	1656
1473	2	1657	1658
1474	1	1657	1660
1475	1	1657	1661
1476	1	1657	1662
1477	5	1658	1659
1478	3	1658	1663
1479	3	1658	1664
1480	4	1659	1665
1481	2	1666	1667
1482	1	1666	1669
1483	1	1666	1670
1484	1	1666	1671
1485	5	1667	1668
1486	3	1667	1672
1487	3	1667	1673
1488	4	1668	1674
1489	2	1675	1676
1490	1	1675	1678
1491	1	1675	1679
1492	1	1675	1680
1493	5	1676	1677
1494	3	1676	1681
1495	3	1676	1682
1496	4	1677	1683
1497	2	1684	1685
1498	1	1684	1687
1499	1	1684	1688
1500	1	1684	1689
1501	5	1685	1686
1502	3	1685	1690
1503	3	1685	1691
1504	4	1686	1692
1505	2	1693	1694
1506	1	1693	1696
1507	1	1693	1697
1508	1	1693	1698
1509	5	1694	1695
1510	3	1694	1699
1511	3	1694	1700
1512	4	1695	1701
1513	2	1702	1703
1514	1	1702	1705
1515	1	1702	1706
1516	1	1702	1707
1517	5	1703	1704
1518	3	1703	1708
1519	3	1703	1709
1520	4	1704	1710
1521	2	1711	1712
1522	1	1711	1714
1523	1	1711	1715
1524	1	1711	1716
1525	5	1712	1713
1526	3	1712	1717
1527	3	1712	1718
1528	4	1713	1719
1529	2	1720	1721
1530	1	1720	1723
1531	1	1720	1724
1532	1	1720	1725
1533	5	1721	1722
1534	3	1721	1726
1535	3	1721	1727
1536	4	1722	1728
1537	2	1729	1730
1538	1	1729	1732
1539	1	1729	1733
1540	1	1729	1734
1541	5	1730	1731
1542	3	1730	1735
1543	3	1730	1736
1544	4	1731	1737
1545	2	1738	1739
1546	1	1738	1741
1547	1	1738	1742
1548	1	1738	1743
1549	5	1739	1740
1550	3	1739	1744
1551	3	1739	1745
1552	4	1740	1746
1553	2	1747	1748
1554	1	1747	1750
1555	1	1747	1751
1556	1	1747	1752
1557	5	1748	1749
1558	3	1748	1753
1559	3	1748	1754
1560	4	1749	1755
1561	2	1756	1757
1562	1	1756	1759
1563	1	1756	1760
1564	1	1756	1761
1565	5	1757	1758
1566	3	1757	1762
1567	3	1757	1763
1568	4	1758	1764
1569	2	1765	1766
1570	1	1765	1768
1571	1	1765	1769
1572	1	1765	1770
1573	5	1766	1767
1574	3	1766	1771
1575	3	1766	1772
1576	4	1767	1773
1577	2	1774	1775
1578	1	1774	1777
1579	1	1774	1778
1580	1	1774	1779
1581	5	1775	1776
1582	3	1775	1780
1583	3	1775	1781
1584	4	1776	1782
1585	2	1783	1784
1586	1	1783	1786
1587	1	1783	1787
1588	1	1783	1788
1589	5	1784	1785
1590	3	1784	1789
1591	3	1784	1790
1592	4	1785	1791
1593	2	1792	1793
1594	1	1792	1795
1595	1	1792	1796
1596	1	1792	1797
1597	5	1793	1794
1598	3	1793	1798
1599	3	1793	1799
1600	4	1794	1800
1601	2	1801	1802
1602	1	1801	1804
1603	1	1801	1805
1604	1	1801	1806
1605	5	1802	1803
1606	3	1802	1807
1607	3	1802	1808
1608	4	1803	1809
1609	2	1810	1811
1610	1	1810	1813
1611	1	1810	1814
1612	1	1810	1815
1613	5	1811	1812
1614	3	1811	1816
1615	3	1811	1817
1616	4	1812	1818
1617	2	1819	1820
1618	1	1819	1822
1619	1	1819	1823
1620	1	1819	1824
1621	5	1820	1821
1622	3	1820	1825
1623	3	1820	1826
1624	4	1821	1827
1625	2	1828	1829
1626	1	1828	1831
1627	1	1828	1832
1628	1	1828	1833
1629	5	1829	1830
1630	3	1829	1834
1631	3	1829	1835
1632	4	1830	1836
1633	2	1837	1838
1634	1	1837	1840
1635	1	1837	1841
1636	1	1837	1842
1637	5	1838	1839
1638	3	1838	1843
1639	3	1838	1844
1640	4	1839	1845
1641	2	1846	1847
1642	1	1846	1849
1643	1	1846	1850
1644	1	1846	1851
1645	5	1847	1848
1646	3	1847	1852
1647	3	1847	1853
1648	4	1848	1854
1649	2	1855	1856
1650	1	1855	1858
1651	1	1855	1859
1652	1	1855	1860
1653	5	1856	1857
1654	3	1856	1861
1655	3	1856	1862
1656	4	1857	1863
1657	2	1864	1865
1658	1	1864	1867
1659	1	1864	1868
1660	1	1864	1869
1661	5	1865	1866
1662	3	1865	1870
1663	3	1865	1871
1664	4	1866	1872
1665	2	1873	1874
1666	1	1873	1876
1667	1	1873	1877
1668	1	1873	1878
1669	5	1874	1875
1670	3	1874	1879
1671	3	1874	1880
1672	4	1875	1881
1673	2	1882	1883
1674	1	1882	1885
1675	1	1882	1886
1676	1	1882	1887
1677	5	1883	1884
1678	3	1883	1888
1679	3	1883	1889
1680	4	1884	1890
1681	2	1891	1892
1682	1	1891	1894
1683	1	1891	1895
1684	1	1891	1896
1685	5	1892	1893
1686	3	1892	1897
1687	3	1892	1898
1688	4	1893	1899
1689	2	1900	1901
1690	1	1900	1903
1691	1	1900	1904
1692	1	1900	1905
1693	5	1901	1902
1694	3	1901	1906
1695	3	1901	1907
1696	4	1902	1908
1697	2	1909	1910
1698	1	1909	1912
1699	1	1909	1913
1700	1	1909	1914
1701	5	1910	1911
1702	3	1910	1915
1703	3	1910	1916
1704	4	1911	1917
1705	2	1918	1919
1706	1	1918	1921
1707	1	1918	1922
1708	1	1918	1923
1709	5	1919	1920
1710	3	1919	1924
1711	3	1919	1925
1712	4	1920	1926
1713	2	1927	1928
1714	1	1927	1930
1715	1	1927	1931
1716	1	1927	1932
1717	5	1928	1929
1718	3	1928	1933
1719	3	1928	1934
1720	4	1929	1935
1721	2	1936	1937
1722	1	1936	1939
1723	1	1936	1940
1724	1	1936	1941
1725	5	1937	1938
1726	3	1937	1942
1727	3	1937	1943
1728	4	1938	1944
1729	2	1945	1946
1730	1	1945	1948
1731	1	1945	1949
1732	1	1945	1950
1733	5	1946	1947
1734	3	1946	1951
1735	3	1946	1952
1736	4	1947	1953
1737	2	1954	1955
1738	1	1954	1957
1739	1	1954	1958
1740	1	1954	1959
1741	5	1955	1956
1742	3	1955	1960
1743	3	1955	1961
1744	4	1956	1962
1745	2	1963	1964
1746	1	1963	1966
1747	1	1963	1967
1748	1	1963	1968
1749	5	1964	1965
1750	3	1964	1969
1751	3	1964	1970
1752	4	1965	1971
1753	2	1972	1973
1754	1	1972	1975
1755	1	1972	1976
1756	1	1972	1977
1757	5	1973	1974
1758	3	1973	1978
1759	3	1973	1979
1760	4	1974	1980
1761	2	1981	1982
1762	1	1981	1984
1763	1	1981	1985
1764	1	1981	1986
1765	5	1982	1983
1766	3	1982	1987
1767	3	1982	1988
1768	4	1983	1989
1769	2	1990	1991
1770	1	1990	1993
1771	1	1990	1994
1772	1	1990	1995
1773	5	1991	1992
1774	3	1991	1996
1775	3	1991	1997
1776	4	1992	1998
1777	2	1999	2000
1778	1	1999	2002
1779	1	1999	2003
1780	1	1999	2004
1781	5	2000	2001
1782	3	2000	2005
1783	3	2000	2006
1784	4	2001	2007
1785	2	2008	2009
1786	1	2008	2011
1787	1	2008	2012
1788	1	2008	2013
1789	5	2009	2010
1790	3	2009	2014
1791	3	2009	2015
1792	4	2010	2016
1793	2	2017	2018
1794	1	2017	2020
1795	1	2017	2021
1796	1	2017	2022
1797	5	2018	2019
1798	3	2018	2023
1799	3	2018	2024
1800	4	2019	2025
1801	2	2026	2027
1802	1	2026	2029
1803	1	2026	2030
1804	1	2026	2031
1805	5	2027	2028
1806	3	2027	2032
1807	3	2027	2033
1808	4	2028	2034
1809	2	2035	2036
1810	1	2035	2038
1811	1	2035	2039
1812	1	2035	2040
1813	5	2036	2037
1814	3	2036	2041
1815	3	2036	2042
1816	4	2037	2043
1817	2	2044	2045
1818	1	2044	2047
1819	1	2044	2048
1820	1	2044	2049
1821	5	2045	2046
1822	3	2045	2050
1823	3	2045	2051
1824	4	2046	2052
1825	2	2053	2054
1826	1	2053	2056
1827	1	2053	2057
1828	1	2053	2058
1829	5	2054	2055
1830	3	2054	2059
1831	3	2054	2060
1832	4	2055	2061
1833	2	2062	2063
1834	1	2062	2065
1835	1	2062	2066
1836	1	2062	2067
1837	5	2063	2064
1838	3	2063	2068
1839	3	2063	2069
1840	4	2064	2070
1841	2	2071	2072
1842	1	2071	2074
1843	1	2071	2075
1844	1	2071	2076
1845	5	2072	2073
1846	3	2072	2077
1847	3	2072	2078
1848	4	2073	2079
1849	2	2080	2081
1850	1	2080	2083
1851	1	2080	2084
1852	1	2080	2085
1853	5	2081	2082
1854	3	2081	2086
1855	3	2081	2087
1856	4	2082	2088
1857	2	2089	2090
1858	1	2089	2092
1859	1	2089	2093
1860	1	2089	2094
1861	5	2090	2091
1862	3	2090	2095
1863	3	2090	2096
1864	4	2091	2097
1865	2	2098	2099
1866	1	2098	2101
1867	1	2098	2102
1868	1	2098	2103
1869	5	2099	2100
1870	3	2099	2104
1871	3	2099	2105
1872	4	2100	2106
1873	2	2107	2108
1874	1	2107	2110
1875	1	2107	2111
1876	1	2107	2112
1877	5	2108	2109
1878	3	2108	2113
1879	3	2108	2114
1880	4	2109	2115
1881	2	2116	2117
1882	1	2116	2119
1883	1	2116	2120
1884	1	2116	2121
1885	5	2117	2118
1886	3	2117	2122
1887	3	2117	2123
1888	4	2118	2124
1889	2	2125	2126
1890	1	2125	2128
1891	1	2125	2129
1892	1	2125	2130
1893	5	2126	2127
1894	3	2126	2131
1895	3	2126	2132
1896	4	2127	2133
1897	2	2134	2135
1898	1	2134	2137
1899	1	2134	2138
1900	1	2134	2139
1901	5	2135	2136
1902	3	2135	2140
1903	3	2135	2141
1904	4	2136	2142
1905	2	2143	2144
1906	1	2143	2146
1907	1	2143	2147
1908	1	2143	2148
1909	5	2144	2145
1910	3	2144	2149
1911	3	2144	2150
1912	4	2145	2151
1913	2	2152	2153
1914	1	2152	2155
1915	1	2152	2156
1916	1	2152	2157
1917	5	2153	2154
1918	3	2153	2158
1919	3	2153	2159
1920	4	2154	2160
1921	2	2161	2162
1922	1	2161	2164
1923	1	2161	2165
1924	1	2161	2166
1925	5	2162	2163
1926	3	2162	2167
1927	3	2162	2168
1928	4	2163	2169
1929	2	2170	2171
1930	1	2170	2173
1931	1	2170	2174
1932	1	2170	2175
1933	5	2171	2172
1934	3	2171	2176
1935	3	2171	2177
1936	4	2172	2178
1937	2	2179	2180
1938	1	2179	2182
1939	1	2179	2183
1940	1	2179	2184
1941	5	2180	2181
1942	3	2180	2185
1943	3	2180	2186
1944	4	2181	2187
1945	2	2188	2189
1946	1	2188	2191
1947	1	2188	2192
1948	1	2188	2193
1949	5	2189	2190
1950	3	2189	2194
1951	3	2189	2195
1952	4	2190	2196
1953	2	2197	2198
1954	1	2197	2200
1955	1	2197	2201
1956	1	2197	2202
1957	5	2198	2199
1958	3	2198	2203
1959	3	2198	2204
1960	4	2199	2205
1961	2	2206	2207
1962	1	2206	2209
1963	1	2206	2210
1964	1	2206	2211
1965	5	2207	2208
1966	3	2207	2212
1967	3	2207	2213
1968	4	2208	2214
1969	2	2215	2216
1970	1	2215	2218
1971	1	2215	2219
1972	1	2215	2220
1973	5	2216	2217
1974	3	2216	2221
1975	3	2216	2222
1976	4	2217	2223
1977	2	2224	2225
1978	1	2224	2227
1979	1	2224	2228
1980	1	2224	2229
1981	5	2225	2226
1982	3	2225	2230
1983	3	2225	2231
1984	4	2226	2232
1985	2	2233	2234
1986	1	2233	2236
1987	1	2233	2237
1988	1	2233	2238
1989	5	2234	2235
1990	3	2234	2239
1991	3	2234	2240
1992	4	2235	2241
1993	2	2242	2243
1994	1	2242	2245
1995	1	2242	2246
1996	1	2242	2247
1997	5	2243	2244
1998	3	2243	2248
1999	3	2243	2249
2000	4	2244	2250

Angles

1	5	1	2	3
2	4	1	2	7
3	4	1	2	8
4	2	2	1	4
5	2	2	1	5
6	2	2	1	6
7	3	2	3	9
8	7	3	2	7
9	7	3	2	8
10	1	4	1	5
11	1	4	1	6
12	1	5	1	6
13	6	7	2	8
14	5	10	11	12
15	4	10	11	16
16	4	10	11	17
17	2	11	10	13
18	2	11	10	14
19	2	11	10	15
20	3	11	12	18
21	7	12	11	16
22	7	12	11	17
23	1	13	10	14
24	1	13	10	15
25	1	14	10	15
26	6	16	11	17
27	5	19	20	21
28	4	19	20	25
29	4	19	20	26
30	2	20	19	22
31	2	20	19	23
32	2	20	19	24
33	3	20	21	27
34	7	21	20	25
35	7	21	20	26
36	1	22	19	23
37	1	22	19	24
38	1	23	19	24
39	6	25	20	26
40	5	28	29	30
41	4	28	29	34
42	4	28	29	35
43	2	29	28	31
44	2	29	28	32
45	2	29	28	33
46	3	29	30	36
47	7	30	29	34
48	7	30	29	35
49	1	31	28	32
50	1	31	28	33
51	1	32	28	33
52	6	34	29	35
53	5	37	38	39
54	4	37	38	43
55	4	37	38	44
56	2	38	37	40
57	2	38	37	41
58	2	38	37	42
59	3	38	39	45
60	7	39	38	43
61	7	39	38	44
62	1	40	37	41
63	1	40	37	42
64	1	41	37	42
65	6	43	38	44
66	5	46	47	48
67	4	46	47	52
68	4	46	47	53
69	2	47	46	49
70	2	47	46	50
71	2	47	46	51
72	3	47	48	54
73	7	48	47	52
74	7	48	47	53
75	1	49	46	50
76	1	49	46	51
77	1	50	46	51
78	6	52	47	53
79	5	55	56	57
80	4	55	56	61
81	4	55	56	62
82	2	56	55	58
83	2	56	55	59
84	2	56	55	60
85	3	56	57	63
86	7	57	56	61
87	7	57	56	62
88	1	58	55	59
89	1	58	55	60
90	1	59	55	60
91	6	61	56	62
92	5	64	65	66
93	4	64	65	70
94	4	64	65	71
95	2	65	64	67
96	2	65	64	68
97	2	65	64	69
98	3	65	66	72
99	7	66	65	70
100	7	66	65	71
101	1	67	64	68
102	1	67	64	69
103	1	68	64	69
104	6	70	65	71
105	5	73	74	75
106	4	73	74	79
107	4	73	74	80
108	2	74	73	76
109	2	74	73	77
110	2	74	73	78
111	3	74	75	81
112	7	75	74	79
113	7	75	74	80
114	1	76	73	77
115	1	76	73	78
116	1	77	73	78
117	6	79	74	80
118	5	82	83	84
119	4	82	83	88
120	4	82	83	89
121	2	83	82	85
122	2	83	82	86
123	2	83	82	87
124	3	83	84	90
125	7	84	83	88
126	7	84	83	89
127	1	85	82	86
128	1	85	82	87
129	1	86	82	87
130	6	88	83	89
131	5	91	92	93
132	4	91	92	97
133	4	91	92	98
134	2	92	91	94
135	2	92	91	95
136	2	92	91	96
137	3	92	93	99
138	7	93	92	97
139	7	93	92	98
140	1	94	91	95
141	1	94	91	96
142	1	95	91	96
143	6	97	92	98
144	5	100	101	102
145	4	100	101	106
146	4	100	101	107
147	2	101	100	103
148	2	101	100	104
149	2	101	100	105
150	3	101	102	108
151	7	102	101	106
152	7	102	101	107
153	1	103	100	104
154	1	103	100	105
155	1	104	100	105
156	6	106	101	107
157	5	109	110	111
158	4	109	110	115
159	4	109	110	116
160	2	110	109	112
161	2	110	109	113
162	2	110	109	114
163	3	110	111	117
164	7	111	110	115
165	7	111	110	116
166	1	112	109	113
167	1	112	109	114
168	1	113	109	114
169	6	115	110	116
170	5	118	119	120
171	4	118	119	124
172	4	118	119	125
173	2	119	118	121
174	2	119	118	122
175	2	119	118	123
176	3	119	120	126
177	7	120	119	124
178	7	120	119	125
179	1	121	118	122
180	1	121	118	123
181	1	122	118	123
182	6	124	119	125
183	5	127	128	129
184	4	127	128	133
185	4	127	128	134
186	2	128	127	130
187	2	128	127	131
188	2	128	127	132
189	3	128	129	135
190	7	129	128	133
191	7	129	128	134
192	1	130	127	131
193	1	130	127	132
194	1	131	127	132
195	6	133	128	134
196	5	136	137	138
197	4	136	137	142
198	4	136	137	143
199	2	137	136	139
200	2	137	136	140
201	2	137	136	141
202	3	137	138	144
203	7	138	137	142
204	7	138	137	143
205	1	139	136	140
206	1	139	136	141
207	1	140	136	141
208	6	142	137	143
209	5	145	146	147
210	4	145	146	151
211	4	145	146	152
212	2	146	145	148
213	2	146	145	149
214	2	146	145	150
215	3	146	147	153
216	7	147	146	151
217	7	147	146	152
218	1	148	145	149
219	1	148	145	150
220	1	149	145	150
221	6	151	146	152
222	5	154	155	156
223	4	154	155	160
224	4	154	155	161
225	2	155	154	157
226	2	155	154	158
227	2	155	154	159
228	3	155	156	162
229	7	156	155	160
230	7	156	155	161
231	1	157	154	158
232	1	157	154	159
233	1	158	154	159
234	6	160	155	161
235	5	163	164	165
236	4	163	164	169
237	4	163	164	170
238	2	164	163	166
239	2	164	163	167
240	2	164	163	168
241	3	164	165	171
242	7	165	164	169
243	7	165	164	170
244	1	166	163	167
245	1	166	163	168
246	1	167	163	168
247	6	169	164	170
248	5	172	173	174
249	4	172	173	178
250	4	172	173	179
251	2	173	172	175
252	2	173	172	176
253	2	173	172	177
254	3	173	174	180
255	7	174	173	178
256	7	174	173	179
257	1	175	172	176
258	1	175	172	177
259	1	176	172	177
260	6	178	173	179
261	5	181	182	183
262	4	181	182	187
263	4	181	182	188
264	2	182	181	184
265	2	182	181	185
266	2	182	181	186
267	3	182	183	189
268	7	183	182	187
269	7	183	182	188
270	1	184	181	185
271	1	184	181	186
272	1	185	181	186
273	6	187	182	188
274	5	190	191	192
275	4	190	191	196
276	4	190	191	197
277	2	191	190	193
278	2	191	190	194
279	2	191	190	195
280	3	191	192	198
281	7	192	191	196
282	7	192	191	197
283	1	193	190	194
284	1	193	190	195
285	1	194	190	195
286	6	196	191	197
287	5	199	200	201
288	4	199	200	205
289	4	199	200	206
290	2	200	199	202
291	2	200	199	203
292	2	200	199	204
293	3	200	201	207
294	7	201	200	205
295	7	201	200	206
296	1	202	199	203
297	1	202	199	204
298	1	203	199	204
299	6	205	200	206
300	5	208	209	210
301	4	208	209	214
302	4	208	209	215
303	2	209	208	211
304	2	209	208	212
305	2	209	208	213
306	3	209	210	216
307	7	210	209	214
308	7	210	209	215
309	1	211	208	212
310	1	211	208	213
311	1	212	208	213
312	6	214	209	215
313	5	217	218	219
314	4	217	218	223
315	4	217	218	224
316	2	218	217	220
317	2	218	217	221
318	2	218	217	222
319	3	218	219	225
320	7	219	218	223
321	7	219	218	224
322	1	220	217	221
323	1	220	217	222
324	1	221	217	222
325	6	223	218	224
326	5	226	227	228
327	4	226	227	232
328	4	226	227	233
329	2	227	226	229
330	2	227	226	230
331	2	227	226	231
332	3	227	228	234
333	7	228	227	232
334	7	228	227	233
335	1	229	226	230
336	1	229	226	231
337	1	230	226	231
338	6	232	227	233
339	5	235	236	237
340	4	235	236	241
341	4	235	236	242
342	2	236	235	238
343	2	236	235	239
344	2	236	235	240
345	3	236	237	243
346	7	237	236	241
347	7	237	236	242
348	1	238	235	239
349	1	238	235	240
350	1	239	235	240
351	6	241	236	242
352	5	244	245	246
353	4	244	245	250
354	4	244	245	251
355	2	245	244	247
356	2	245	244	248
357	2	245	244	249
358	3	245	246	252
359	7	246	245	250
360	7	246	245	251
361	1	247	244	248
362	1	247	244	249
363	1	248	244	249
364	6	250	245	251
365	5	253	254	255
366	4	253	254	259
367	4	253	254	260
368	2	254	253	256
369	2	254	253	257
370	2	254	253	258
371	3	254	255	261
372	7	255	254	259
373	7	255	254	260
374	1	256	253	257
375	1	256	253	258
376	1	257	253	258
377	6	259	254	260
378	5	262	263	264
379	4	262	263	268
380	4	262	263	269
381	2	263	262	265
382	2	263	262	266
383	2	263	262	267
384	3	263	264	270
385	7	264	263	268
386	7	264	263	269
387	1	265	262	266
388	1	265	262	267
389	1	266	262	267
390	6	268	263	269
391	5	271	272	273
392	4	271	272	277
393	4	271	272	278
394	2	272	271	274
395	2	272	271	275
396	2	272	271	276
397	3	272	273	279
398	7	273	272	277
399	7	273	272	278
400	1	274	271	275
401	1	274	271	276
402	1	275	271	276
403	6	277	272	278
404	5	280	281	282
405	4	280	281	286
406	4	280	281	287
407	2	281	280	283
408	2	281	280	284
409	2	281	280	285
410	3	281	282	288
411	7	282	281	286
412	7	282	281	287
413	1	283	280	284
414	1	283	280	285
415	1	284	280	285
416	6	286	281	287
417	5	289	290	291
418	4	289	290	295
419	4	289	290	296
420	2	290	289	292
421	2	290	289	293
422	2	290	289	294
423	3	290	291	297
424	7	291	290	295
425	7	291	290	296
426	1	292	289	293
427	1	292	289	294
428	1	293	289	294
429	6	295	290	296
430	5	298	299	300
431	4	298	299	304
432	4	298	299	305
433	2	299	298	301
434	2	299	298	302
435	2	299	298	303
436	3	299	300	306
437	7	300	299	304
438	7	300	299	305
439	1	301	298	302
440	1	301	298	303
441	1	302	298	303
442	6	304	299	305
443	5	307	308	309
444	4	307	308	313
445	4	307	308	314
446	2	308	307	310
447	2	308	307	311
448	2	308	307	312
449	3	308	309	315
450	7	309	308	313
451	7	309	308	314
452	1	310	307	311
453	1	310	307	312
454	1	311	307	312
455	6	313	308	314
456	5	316	317	318
457	4	316	317	322
458	4	316	317	323
459	2	317	316	319
460	2	317	316	320
461	2	317	316	321
462	3	317	318	324
463	7	318	317	322
464	7	318	317	323
465	1	319	316	320
466	1	319	316	321
467	1	320	316	321
468	6	322	317	323
469	5	325	326	327
470	4	325	326	331
471	4	325	326	332
472	2	326	325	328
473	2	326	325	329
474	2	326	325	330
475	3	326	327	333
476	7	327	326	331
477	7	327	326	332
478	1	328	325	329
479	1	328	325	330
480	1	329	325	330
481	6	331	326	332
482	5	334	335	336
483	4	334	335	340
484	4	334	335	341
485	2	335	334	337
486	2	335	334	338
487	2	335	334	339
488	3	335	336	342
489	7	336	335	340
490	7	336	335	341
491	1	337	334	338
492	1	337	334	339
493	1	338	334	339
494	6	340	335	341
495	5	343	344	345
496	4	343	344	349
497	4	343	344	350
498	2	344	343	346
499	2	344	343	347
500	2	344	343	348
501	3	344	345	351
502	7	345	344	349
503	7	345	344	350
504	1	346	343	347
505	1	346	343	348
506	1	347	343	348
507	6	349	344	350
508	5	352	353	354
509	4	352	353	358
510	4	352	353	359
511	2	353	352	355
512	2	353	352	356
513	2	353	352	357
514	3	353	354	360
515	7	354	353	358
516	7	354	353	359
517	1	355	352	356
518	1	355	352	357
519	1	356	352	357
520	6	358	353	359
521	5	361	362	363
522	4	361	362	367
523	4	361	362	368
524	2	362	361	364
525	2	362	361	365
526	2	362	361	366
527	3	362	363	369
528	7	363	362	367
529	7	363	362	368
530	1	364	361	365
531	1	364	361	366
532	1	365	361	366
533	6	367	362	368
534	5	370	371	372
535	4	370	371	376
536	4	370	371	377
537	2	371	370	373
538	2	371	370	374
539	2	371	370	375
540	3	371	372	378
541	7	372	371	376
542	7	372	371	377
543	1	373	370	374
544	1	373	370	375
545	1	374	370	375
546	6	376	371	377
547	5	379	380	381
548	4	379	380	385
549	4	379	380	386
550	2	380	379	382
551	2	380	379	383
552	2	380	379	384
553	3	380	381	387
554	7	381	380	385
555	7	381	380	386
556	1	382	379	383
557	1	382	379	384
558	1	383	379	384
559	6	385	380	386
560	5	388	389	390
561	4	388	389	394
562	4	388	389	395
563	2	389	388	391
564	2	389	388	392
565	2	389	388	393
566	3	389	390	396
567	7	390	389	394
568	7	390	389	395
569	1	391	388	392
570	1	391	388	393
571	1	392	388	393
572	6	394	389	395
573	5	397	398	399
574	4	397	398	403
575	4	397	398	404
576	2	398	397	400
577	2	398	397	401
578	2	398	397	402
579	3	398	399	405
580	7	399	398	403
581	7	399	398	404
582	1	400	397	401
583	1	400	397	402
584	1	401	397	402
585	6	403	398	404
586	5	406	407	408
587	4	406	407	412
588	4	406	407	413
589	2	407	406	409
590	2	407	406	410
591	2	407	406	411
592	3	407	408	414
593	7	408	407	412
594	7	408	407	413
595	1	409	406	410
596	1	409	406	411
597	1	410	406	411
598	6	412	407	413
599	5	415	416	417
600	4	415	416	421
601	4	415	416	422
602	2	416	415	418
603	2	416	415	419
604	2	416	415	420
605	3	416	417	423
606	7	417	416	421
607	7	417	416	422
608	1	418	415	419
609	1	418	415	420
610	1	419	415	420
611	6	421	416	422
612	5	424	425	426
613	4	424	425	430
614	4	424	425	431
615	2	425	424	427
616	2	425	424	428
617	2	425	424	429
618	3	425	426	432
619	7	426	425	430
620	7	426	425	431
621	1	427	424	428
622	1	427	424	429
623	1	428	424	429
624	6	430	425	431
625	5	433	434	435
626	4	433	434	439
627	4	433	434	440
628	2	434	433	436
629	2	434	433	437
630	2	434	433	438
631	3	434	435	441
632	7	435	434	439
633	7	435	434	440
634	1	436	433	437
635	1	436	433	438
636	1	437	433	438
637	6	439	434	440
638	5	442	443	444
639	4	442	443	448
640	4	442	443	449
641	2	443	442	445
642	2	443	442	446
643	2	443	442	447
644	3	443	444	450
645	7	444	443	448
646	7	444	443	449
647	1	445	442	446
648	1	445	442	447
649	1	446	442	447
650	6	448	443	449
651	5	451	452	453
652	4	451	452	457
653	4	451	452	458
654	2	452	451	454
655	2	452	451	455
656	2	452	451	456
657	3	452	453	459
658	7	453	452	457
659	7	453	452	458
660	1	454	451	455
661	1	454	451	456
662	1	455	451	456
663	6	457	452	458
664	5	460	461	462
665	4	460	461	466
666	4	460	461	467
667	2	461	460	463
668	2	461	460	464
669	2	461	460	465
670	3	461	462	468
671	7	462	461	466
672	7	462	461	467
673	1	463	460	464
674	1	463	460	465
675	1	464	460	465
676	6	466	461	467
677	5	469	470	471
678	4	469	470	475
679	4	469	470	476
680	2	470	469	472
681	2	470	469	473
682	2	470	469	474
683	3	470	471	477
684	7	471	470	475
685	7	471	470	476
686	1	472	469	473
687	1	472	469	474
688	1	473	469	474
689	6	475	470	476
690	5	478	479	480
691	4	478	479	484
692	4	478	479	485
693	2	479	478	481
694	2	479	478	482
695	2	479	478	483
696	3	479	480	486
697	7	480	479	484
698	7	480	479	485
699	1	481	478	482
700	1	481	478	483
701	1	482	478	483
702	6	484	479	485
703	5	487	488	489
704	4	487	488	493
705	4	487	488	494
706	2	488	487	490
707	2	488	487	491
708	2	488	487	492
709	3	488	489	495
710	7	489	488	493
711	7	489	488	494
712	1	490	487	491
713	1	490	487	492
714	1	491	487	492
715	6	493	488	494
716	5	496	497	498
717	4	496	497	502
718	4	496	497	503
719	2	497	496	499
720	2	497	496	500
721	2	497	496	501
722	3	497	498	504
723	7	498	497	502
724	7	498	497	503
725	1	499	496	500
726	1	499	496	501
727	1	500	496	501
728	6	502	497	503
729	5	505	506	507
730	4	505	506	511
731	4	505	506	512
732	2	506	505	508
733	2	506	505	509
734	2	506	505	510
735	3	506	507	513
736	7	507	506	511
737	7	507	506	512
738	1	508	505	509
739	1	508	505	510
740	1	509	505	510
741	6	511	506	512
742	5	514	515	516
743	4	514	515	520
744	4	514	515	521
745	2	515	514	517
746	2	515	514	518
747	2	515	514	519
748	3	515	516	522
749	7	516	515	520
750	7	516	515	521
751	1	517	514	518
752	1	517	514	519
753	1	518	514	519
754	6	520	515	521
755	5	523	524	525
756	4	523	524	529
757	4	523	524	530
758	2	524	523	526
759	2	524	523	527
760	2	524	523	528
761	3	524	525	531
762	7	525	524	529
763	7	525	524	530
764	1	526	523	527
765	1	526	523	528
766	1	527	523	528
767	6	529	524	530
768	5	532	533	534
769	4	532	533	538
770	4	532	533	539
771	2	533	532	535
772	2	533	532	536
773	2	533	532	537
774	3	533	534	540
775	7	534	533	538
776	7	534	533	539
777	1	535	532	536
778	1	535	532	537
779	1	536	532	537
780	6	538	533	539
781	5	541	542	543
782	4	541	542	547
783	4	541	542	548
784	2	542	541	544
785	2	542	541	545
786	2	542	541	546
787	3	542	543	549
788	7	543	542	547
789	7	543	542	548
790	1	544	541	545
791	1	544	541	546
792	1	545	541	546
793	6	547	542	548
794	5	550	551	552
795	4	550	551	556
796	4	550	551	557
797	2	551	550	553
798	2	551	550	554
799	2	551	550	555
800	3	551	552	558
801	7	552	551	556
802	7	552	551	557
803	1	553	550	554
804	1	553	550	555
805	1	554	550	555
806	6	556	551	557
807	5	559	560	561
808	4	559	560	565
809	4	559	560	566
810	2	560	559	562
811	2	560	559	563
812	2	560	559	564
813	3	560	561	567
814	7	561	560	565
815	7	561	560	566
816	1	562	559	563
817	1	562	559	564
818	1	563	559	564
819	6	565	560	566
820	5	568	569	570
821	4	568	569	574
822	4	568	569	575
823	2	569	568	571
824	2	569	568	572
825	2	569	568	573
826	3	569	570	576
827	7	570	569	574
828	7	570	569	575
829	1	571	568	572
830	1	571	568	573
831	1	572	568	573
832	6	574	569	575
833	5	577	578	579
834	4	577	578	583
835	4	577	578	584
836	2	578	577	580
837	2	578	577	581
838	2	578	577	582
839	3	578	579	585
840	7	579	578	583
841	7	579	578	584
842	1	580	577	581
843	1	580	577	582
844	1	581	577	582
845	6	583	578	584
846	5	586	587	588
847	4	586	587	592
848	4	586	587	593
849	2	587	586	589
850	2	587	586	590
851	2	587	586	591
852	3	587	588	594
853	7	588	587	592
854	7	588	587	593
855	1	589	586	590
856	1	589	586	591
857	1	590	586	591
858	6	592	587	593
859	5	595	596	597
860	4	595	596	601
861	4	595	596	602
862	2	596	595	598
863	2	596	595	599
864	2	596	595	600
865	3	596	597	603
866	7	597	596	601
867	7	597	596	602
868	1	598	595	599
869	1	598	595	600
870	1	599	595	600
871	6	601	596	602
872	5	604	605	606
873	4	604	605	610
874	4	604	605	611
875	2	605	604	607
876	2	605	604	608
877	2	605	604	609
878	3	605	606	612
879	7	606	605	610
880	7	606	605	611
881	1	607	604	608
882	1	607	604	609
883	1	608	604	609
884	6	610	605	611
885	5	613	614	615
886	4	613	614	619
887	4	613	614	620
888	2	614	613	616
889	2	614	613	617
890	2	614	613	618
891	3	614	615	621
892	7	615	614	619
893	7	615	614	620
894	1	616	613	617
895	1	616	613	618
896	1	617	613	618
897	6	619	614	620
898	5	622	623	624
899	4	622	623	628
900	4	622	623	629
901	2	623	622	625
902	2	623	622	626
903	2	623	622	627
904	3	623	624	630
905	7	624	623	628
906	7	624	623	629
907	1	625	622	626
908	1	625	622	627
909	1	626	622	627
910	6	628	623	629
911	5	631	632	633
912	4	631	632	637
913	4	631	632	638
914	2	632	631	634
915	2	632	631	635
916	2	632	631	636
917	3	632	633	639
918	7	633	632	637
919	7	633	632	638
920	1	634	631	635
921	1	634	631	636
922	1	635	631	636
923	6	637	632	638
924	5	640	641	642
925	4	640	641	646
926	4	640	641	647
927	2	641	640	643
928	2	641	640	644
929	2	641	640	645
930	3	641	642	648
931	7	642	641	646
932	7	642	641	647
933	1	643	640	644
934	1	643	640	645
935	1	644	640	645
936	6	646	641	647
937	5	649	650	651
938	4	649	650	655
939	4	649	650	656
940	2	650	649	652
941	2	650	649	653
942	2	650	649	654
943	3	650	651	657
944	7	651	650	655
945	7	651	650	656
946	1	652	649	653
947	1	652	649	654
948	1	653	649	654
949	6	655	650	656
950	5	658	659	660
951	4	658	659	664
952	4	658	659	665
953	2	659	658	661
954	2	659	658	662
955	2	659	658	663
956	3	659	660	666
957	7	660	659	664
958	7	660	659	665
959	1	661	658	662
960	1	661	658	663
961	1	662	658	663
962	6	664	659	665
963	5	667	668	669
964	4	667	668	673
965	4	667	668	674
966	2	668	667	670
967	2	668	667	671
968	2	668	667	672
969	3	668	669	675
970	7	669	668	673
971	7	669	668	674
972	1	670	667	671
973	1	670	667	672
974	1	671	667	672
975	6	673	668	674
976	5	676	677	678
977	4	676	677	682
978	4	676	677	683
979	2	677	676	679
980	2	677	676	680
981	2	677	676	681
982	3	677	678	684
983	7	678	677	682
984	7	678	677	683
985	1	679	676	680
986	1	679	676	681
987	1	680	676	681
988	6	682	677	683
989	5	685	686	687
990	4	685	686	691
991	4	685	686	692
992	2	686	685	688
993	2	686	685	689
994	2	686	685	690
995	3	686	687	693
996	7	687	686	691
997	7	687	686	692
998	1	688	685	689
999	1	688	685	690
1000	1	689	685	690
1001	6	691	686	692
1002	5	694	695	696
1003	4	694	695	700
1004	4	694	695	701
1005	2	695	694	697
1006	2	695	694	698
1007	2	695	694	699
1008	3	695	696	702
1009	7	696	695	700
1010	7	696	695	701
1011	1	697	694	698
1012	1	697	694	699
1013	1	698	694	699
1014	6	700	695	701
1015	5	703	704	705
1016	4	703	704	709
1017	4	703	704	710
1018	2	704	703	706
1019	2	704	703	707
1020	2	704	703	708
1021	3	704	705	711
1022	7	705	704	709
1023	7	705	704	710
1024	1	706	703	707
1025	1	706	703	708
1026	1	707	703	708
1027	6	709	704	710
1028	5	712	713	714
1029	4	712	713	718
1030	4	712	713	719
1031	2	713	712	715
1032	2	713	712	716
1033	2	713	712	717
1034	3	713	714	720
1035	7	714	713	718
1036	7	714	713	719
1037	1	715	712	716
1038	1	715	712	717
1039	1	716	712	717
1040	6	718	713	719
1041	5	721	722	723
1042	4	721	722	727
1043	4	721	722	728
1044	2	722	721	724
1045	2	722	721	725
1046	2	722	721	726
1047	3	722	723	729
1048	7	723	722	727
1049	7	723	722	728
1050	1	724	721	725
1051	1	724	721	726
1052	1	725	721	726
1053	6	727	722	728
1054	5	730	731	732
1055	4	730	731	736
1056	4	730	731	737
1057	2	731	730	733
1058	2	731	730	734
1059	2	731	730	735
1060	3	731	732	738
1061	7	732	731	736
1062	7	732	731	737
1063	1	733	730	734
1064	1	733	730	735
1065	1	734	730	735
1066	6	736	731	737
1067	5	739	740	741
1068	4	739	740	745
1069	4	739	740	746
1070	2	740	739	742
1071	2	740	739	743
1072	2	740	739	744
1073	3	740	741	747
1074	7	741	740	745
1075	7	741	740	746
1076	1	742	739	743
1077	1	742	739	744
1078	1	743	739	744
1079	6	745	740	746
1080	5	748	749	750
1081	4	748	749	754
1082	4	748	749	755
1083	2	749	748	751
1084	2	749	748	752
1085	2	749	748	753
1086	3	749	750	756
1087	7	750	749	754
1088	7	750	749	755
1089	1	751	748	752
1090	1	751	748	753
1091	1	752	748	753
1092	6	754	749	755
1093	5	757	758	759
1094	4	757	758	763
1095	4	757	758	764
1096	2	758	757	760
1097	2	758	757	761
1098	2	758	757	762
1099	3	758	759	765
1100	7	759	758	763
1101	7	759	758	764
1102	1	760	757	761
1103	1	760	757	762
1104	1	761	757	762
1105	6	763	758	764
1106	5	766	767	768
1107	4	766	767	772
1108	4	766	767	773
1109	2	767	766	769
1110	2	767	766	770
1111	2	767	766	771
1112	3	767	768	774
1113	7	768	767	772
1114	7	768	767	773
1115	1	769	766	770
1116	1	769	766	771
1117	1	770	766	771
1118	6	772	767	773
1119	5	775	776	777
1120	4	775	776	781
1121	4	775	776	782
1122	2	776	775	778
1123	2	776	775	779
1124	2	776	775	780
1125	3	776	777	783
1126	7	777	776	781
1127	7	777	776	782
1128	1	778	775	779
1129	1	778	775	780
1130	1	779	775	780
1131	6	781	776	782
1132	5	784	785	786
1133	4	784	785	790
1134	4	784	785	791
1135	2	785	784	787
1136	2	785	784	788
1137	2	785	784	789
1138	3	785	786	792
1139	7	786	785	790
1140	7	786	785	791
1141	1	787	784	788
1142	1	787	784	789
1143	1	788	784	789
1144	6	790	785	791
1145	5	793	794	795
1146	4	793	794	799
1147	4	793	794	800
1148	2	794	793	796
1149	2	794	793	797
1150	2	794	793	798
1151	3	794	795	801
1152	7	795	794	799
1153	7	795	794	800
1154	1	796	793	797
1155	1	796	793	798
1156	1	797	793	798
1157	6	799	794	800
1158	5	802	803	804
1159	4	802	803	808
1160	4	802	803	809
1161	2	803	802	805
1162	2	803	802	806
1163	2	803	802	807
1164	3	803	804	810
1165	7	804	803	808
1166	7	804	803	809
1167	1	805	802	806
1168	1	805	802	807
1169	1	806	802	807
1170	6	808	803	809
1171	5	811	812	813
1172	4	811	812	817
1173	4	811	812	818
1174	2	812	811	814
1175	2	812	811	815
1176	2	812	811	816
1177	3	812	813	819
1178	7	813	812	817
1179	7	813	812	818
1180	1	814	811	815
1181	1	814	811	816
1182	1	815	811	816
1183	6	817	812	818
1184	5	820	821	822
1185	4	820	821	826
1186	4	820	821	827
1187	2	821	820	823
1188	2	821	820	824
1189	2	821	820	825
1190	3	821	822	828
1191	7	822	821	826
1192	7	822	821	827
1193	1	823	820	824
1194	1	823	820	825
1195	1	824	820	825
1196	6	826	821	827
1197	5	829	830	831
1198	4	829	830	835
1199	4	829	830	836
1200	2	830	829	832
1201	2	830	829	833
1202	2	830	829	834
1203	3	830	831	837
1204	7	831	830	835
1205	7	831	830	836
1206	1	832	829	833
1207	1	832	829	834
1208	1	833	829	834
1209	6	835	830	836
1210	5	838	839	840
1211	4	838	839	844
1212	4	838	839	845
1213	2	839	838	841
1214	2	839	838	842
1215	2	839	838	843
1216	3	839	840	846
1217	7	840	839	844
1218	7	840	839	845
1219	1	841	838	842
1220	1	841	838	843
1221	1	842	838	843
1222	6	844	839	845
1223	5	847	848	849
1224	4	847	848	853
1225	4	847	848	854
1226	2	848	847	850
1227	2	848	847	851
1228	2	848	847	852
1229	3	848	849	855
1230	7	849	848	853
1231	7	849	848	854
1232	1	850	847	851
1233	1	850	847	852
1234	1	851	847	852
1235	6	853	848	854
1236	5	856	857	858
1237	4	856	857	862
1238	4	856	857	863
1239	2	857	856	859
1240	2	857	856	860
1241	2	857	856	861
1242	3	857	858	864
1243	7	858	857	862
1244	7	858	857	863
1245	1	859	856	860
1246	1	859	856	861
1247	1	860	856	861
1248	6	862	857	863
1249	5	865	866	867
1250	4	865	866	871
1251	4	865	866	872
1252	2	866	865	868
1253	2	866	865	869
1254	2	866	865	870
1255	3	866	867	873
1256	7	867	866	871
1257	7	867	866	872
1258	1	868	865	869
1259	1	868	865	870
1260	1	869	865	870
1261	6	871	866	872
1262	5	874	875	876
1263	4	874	875	880
1264	4	874	875	881
1265	2	875	874	877
1266	2	875	874	878
1267	2	875	874	879
1268	3	875	876	882
1269	7	876	875	880
1270	7	876	875	881
1271	1	877	874	878
1272	1	877	874	879
1273	1	878	874	879
1274	6	880	875	881
1275	5	883	884	885
1276	4	883	884	889
1277	4	883	884	890
1278	2	884	883	886
1279	2	884	883	887
1280	2	884	883	888
1281	3	884	885	891
1282	7	885	884	889
1283	7	885	884	890
1284	1	886	883	887
1285	1	886	883	888
1286	1	887	883	888
1287	6	889	884	890
1288	5	892	893	894
1289	4	892	893	898
1290	4	892	893	899
1291	2	893	892	895
1292	2	893	892	896
1293	2	893	892	897
1294	3	893	894	900
1295	7	894	893	898
1296	7	894	893	899
1297	1	895	892	896
1298	1	895	892	897
1299	1	896	892	897
1300	6	898	893	899
1301	5	901	902	903
1302	4	901	902	907
1303	4	901	902	908
1304	2	902	901	904
1305	2	902	901	905
1306	2	902	901	906
1307	3	902	903	909
1308	7	903	902	907
1309	7	903	902	908
1310	1	904	901	905
1311	1	904	901	906
1312	1	905	901	906
1313	6	907	902	908
1314	5	910	911	912
1315	4	910	911	916
1316	4	910	911	917
1317	2	911	910	913
1318	2	911	910	914
1319	2	911	910	915
1320	3	911	912	918
1321	7	912	911	916
1322	7	912	911	917
1323	1	913	910	914
1324	1	913	910	915
1325	1	914	910	915
1326	6	916	911	917
1327	5	919	920	921
1328	4	919	920	925
1329	4	919	920	926
1330	2	920	919	922
1331	2	920	919	923
1332	2	920	919	924
1333	3	920	921	927
1334	7	921	920	925
1335	7	921	920	926
1336	1	922	919	923
1337	1	922	919	924
1338	1	923	919	924
1339	6	925	920	926
1340	5	928	929	930
1341	4	928	929	934
1342	4	928	929	935
1343	2	929	928	931
1344	2	929	928	932
1345	2	929	928	933
1346	3	929	930	936
1347	7	930	929	934
1348	7	930	929	935
1349	1	931	928	932
1350	1	931	928	933
1351	1	932	928	933
1352	6	934	929	935
1353	5	937	938	939
1354	4	937	938	943
1355	4	937	938	944
1356	2	938	937	940
1357	2	938	937	941
1358	2	938	937	942
1359	3	938	939	945
1360	7	939	938	943
1361	7	939	938	944
1362	1	940	937	941
1363	1	940	937	942
1364	1	941	937	942
1365	6	943	938	944
1366	5	946	947	948
1367	4	946	947	952
1368	4	946	947	953
1369	2	947	946	949
1370	2	947	946	950
1371	2	947	946	951
1372	3	947	948	954
1373	7	948	947	952
1374	7	948	947	953
1375	1	949	946	950
1376	1	949	946	951
1377	1	950	946	951
1378	6	952	947	953
1379	5	955	956	957
1380	4	955	956	961
1381	4	955	956	962
1382	2	956	955	958
1383	2	956	955	959
1384	2	956	955	960
1385	3	956	957	963
1386	7	957	956	961
1387	7	957	956	962
1388	1	958	955	959
1389	1	958	955	960
1390	1	959	955	960
1391	6	961	956	962
1392	5	964	965	966
1393	4	964	965	970
1394	4	964	965	971
1395	2	965	964	967
1396	2	965	964	968
1397	2	965	964	969
1398	3	965	966	972
1399	7	966	965	970
1400	7	966	965	971
1401	1	967	964	968
1402	1	967	964	969
1403	1	968	964	969
1404	6	970	965	971
1405	5	973	974	975
1406	4	973	974	979
1407	4	973	974	980
1408	2	974	973	976
1409	2	974	973	977
1410	2	974	973	978
1411	3	974	975	981
1412	7	975	974	979
1413	7	975	974	980
1414	1	976	973	977
1415	1	976	973	978
1416	1	977	973	978
1417	6	979	974	980
1418	5	982	983	984
1419	4	982	983	988
1420	4	982	983	989
1421	2	983	982	985
1422	2	983	982	986
1423	2	983	982	987
1424	3	983	984	990
1425	7	984	983	988
1426	7	984	983	989
1427	1	985	982	986
1428	1	985	982	987
1429	1	986	982	987
1430	6	988	983	989
1431	5	991	992	993
1432	4	991	992	997
1433	4	991	992	998
1434	2	992	991	994
1435	2	992	991	995
1436	2	992	991	996
1437	3	992	993	999
1438	7	993	992	997
1439	7	993	992	998
1440	1	994	991	995
1441	1	994	991	996
1442	1	995	991	996
1443	6	997	992	998
1444	5	1000	1001	1002
1445	4	1000	1001	1006
1446	4	1000	1001	1007
1447	2	1001	1000	1003
1448	2	1001	1000	1004
1449	2	1001	1000	1005
1450	3	1001	1002	1008
1451	7	1002	1001	1006
1452	7	1002	1001	1007
1453	1	1003	1000	1004
1454	1	1003	1000	1005
1455	1	1004	1000	1005
1456	6	1006	1001	1007
1457	5	1009	1010	1011
1458	4	1009	1010	1015
1459	4	1009	1010	1016
1460	2	1010	1009	1012
1461	2	1010	1009	1013
1462	2	1010	1009	1014
1463	3	1010	1011	1017
1464	7	1011	1010	1015
1465	7	1011	1010	1016
1466	1	1012	1009	1013
1467	1	1012	1009	1014
1468	1	1013	1009	1014
1469	6	1015	1010	1016
1470	5	1018	1019	1020
1471	4	1018	1019	1024
1472	4	1018	1019	1025
1473	2	1019	1018	1021
1474	2	1019	1018	1022
1475	2	1019	1018	1023
1476	3	1019	1020	1026
1477	7	1020	1019	1024
1478	7	1020	1019	1025
1479	1	1021	1018	1022
1480	1	1021	1018	1023
1481	1	1022	1018	1023
1482	6	1024	1019	1025
1483	5	1027	1028	1029
1484	4	1027	1028	1033
1485	4	1027	1028	1034
1486	2	1028	1027	1030
1487	2	1028	1027	1031
1488	2	1028	1027	1032
1489	3	1028	1029	1035
1490	7	1029	1028	1033
1491	7	1029	1028	1034
1492	1	1030	1027	1031
1493	1	1030	1027	1032
1494	1	1031	1027	1032
1495	6	1033	1028	1034
1496	5	1036	1037	1038
1497	4	1036	1037	1042
1498	4	1036	1037	1043
1499	2	1037	1036	1039
1500	2	1037	1036	1040
1501	2	1037	1036	1041
1502	3	1037	1038	1044
1503	7	1038	1037	1042
1504	7	1038	1037	1043
1505	1	1039	1036	1040
1506	1	1039	1036	1041
1507	1	1040	1036	1041
1508	6	1042	1037	1043
1509	5	1045	1046	1047
1510	4	1045	1046	1051
1511	4	1045	1046	1052
1512	2	1046	1045	1048
1513	2	1046	1045	1049
1514	2	1046	1045	1050
1515	3	1046	1047	1053
1516	7	1047	1046	1051
1517	7	1047	1046	1052
1518	1	1048	1045	1049
1519	1	1048	1045	1050
1520	1	1049	1045	1050
1521	6	1051	1046	1052
1522	5	1054	1055	1056
1523	4	1054	1055	1060
1524	4	1054	1055	1061
1525	2	1055	1054	1057
1526	2	1055	1054	1058
1527	2	1055	1054	1059
1528	3	1055	1056	1062
1529	7	1056	1055	1060
1530	7	1056	1055	1061
1531	1	1057	1054	1058
1532	1	1057	1054	1059
1533	1	1058	1054	1059
1534	6	1060	1055	1061
1535	5	1063	1064	1065
1536	4	1063	1064	1069
1537	4	1063	1064	1070
1538	2	1064	1063	1066
1539	2	1064	1063	1067
1540	2	1064	1063	1068
1541	3	1064	1065	1071
1542	7	1065	1064	1069
1543	7	1065	1064	1070
1544	1	1066	1063	1067
1545	1	1066	1063	1068
1546	1	1067	1063	1068
1547	6	1069	1064	1070
1548	5	1072	1073	1074
1549	4	1072	1073	1078
1550	4	1072	1073	1079
1551	2	1073	1072	1075
1552	2	1073	1072	1076
1553	2	1073	1072	1077
1554	3	1073	1074	1080
1555	7	1074	1073	1078
1556	7	1074	1073	1079
1557	1	1075	1072	1076
1558	1	1075	1072	1077
1559	1	1076	1072	1077
1560	6	1078	1073	1079
1561	5	1081	1082	1083
1562	4	1081	1082	1087
1563	4	1081	1082	1088
1564	2	1082	1081	1084
1565	2	1082	1081	1085
1566	2	1082	1081	1086
1567	3	1082	1083	1089
1568	7	1083	1082	1087
1569	7	1083	1082	1088
1570	1	1084	1081	1085
1571	1	1084	1081	1086
1572	1	1085	1081	1086
1573	6	1087	1082	1088
1574	5	1090	1091	1092
1575	4	1090	1091	1096
1576	4	1090	1091	1097
1577	2	1091	1090	1093
1578	2	1091	1090	1094
1579	2	1091	1090	1095
1580	3	1091	1092	1098
1581	7	1092	1091	1096
1582	7	1092	1091	1097
1583	1	1093	1090	1094
1584	1	1093	1090	1095
1585	1	1094	1090	1095
1586	6	1096	1091	1097
1587	5	1099	1100	1101
1588	4	1099	1100	1105
1589	4	1099	1100	1106
1590	2	1100	1099	1102
1591	2	1100	1099	1103
1592	2	1100	1099	1104
1593	3	1100	1101	1107
1594	7	1101	1100	1105
1595	7	1101	1100	1106
1596	1	1102	1099	1103
1597	1	1102	1099	1104
1598	1	1103	1099	1104
1599	6	1105	1100	1106
1600	5	1108	1109	1110
1601	4	1108	1109	1114
1602	4	1108	1109	1115
1603	2	1109	1108	1111
1604	2	1109	1108	1112
1605	2	1109	1108	1113
1606	3	1109	1110	1116
1607	7	1110	1109	1114
1608	7	1110	1109	1115
1609	1	1111	1108	1112
1610	1	1111	1108	1113
1611	1	1112	1108	1113
1612	6	1114	1109	1115
1613	5	1117	1118	1119
1614	4	1117	1118	1123
1615	4	1117	1118	1124
1616	2	1118	1117	1120
1617	2	1118	1117	1121
1618	2	1118	1117	1122
1619	3	1118	1119	1125
1620	7	1119	1118	1123
1621	7	1119	1118	1124
1622	1	1120	1117	1121
1623	1	1120	1117	1122
1624	1	1121	1117	1122
1625	6	1123	1118	1124
1626	5	1126	1127	1128
1627	4	1126	1127	1132
1628	4	1126	1127	1133
1629	2	1127	1126	1129
1630	2	1127	1126	1130
1631	2	1127	1126	1131
1632	3	1127	1128	1134
1633	7	1128	1127	1132
1634	7	1128	1127	1133
1635	1	1129	1126	1130
1636	1	1129	1126	1131
1637	1	1130	1126	1131
1638	6	1132	1127	1133
1639	5	1135	1136	1137
1640	4	1135	1136	1141
1641	4	1135	1136	1142
1642	2	1136	1135	1138
1643	2	1136	1135	1139
1644	2	1136	1135	1140
1645	3	1136	1137	1143
1646	7	1137	1136	1141
1647	7	1137	1136	1142
1648	1	1138	1135	1139
1649	1	1138	1135	1140
1650	1	1139	1135	1140
1651	6	1141	1136	1142
1652	5	1144	1145	1146
1653	4	1144	1145	1150
1654	4	1144	1145	1151
1655	2	1145	1144	1147
1656	2	1145	1144	1148
1657	2	1145	1144	1149
1658	3	1145	1146	1152
1659	7	1146	1145	1150
1660	7	1146	1145	1151
1661	1	1147	1144	1148
1662	1	1147	1144	1149
1663	1	1148	1144	1149
1664	6	1150	1145	1151
1665	5	1153	1154	1155
1666	4	1153	1154	1159
1667	4	1153	1154	1160
1668	2	1154	1153	1156
1669	2	1154	1153	1157
1670	2	1154	1153	1158
1671	3	1154	1155	1161
1672	7	1155	1154	1159
1673	7	1155	1154	1160
1674	1	1156	1153	1157
1675	1	1156	1153	1158
1676	1	1157	1153	1158
1677	6	1159	1154	1160
1678	5	1162	1163	1164
1679	4	1162	1163	1168
1680	4	1162	1163	1169
1681	2	1163	1162	1165
1682	2	1163	1162	1166
1683	2	1163	1162	1167
1684	3	1163	1164	1170
1685	7	1164	1163	1168
1686	7	1164	1163	1169
1687	1	1165	1162	1166
1688	1	1165	1162	1167
1689	1	1166	1162	1167
1690	6	1168	1163	1169
1691	5	1171	1172	1173
1692	4	1171	1172	1177
1693	4	1171	1172	1178
1694	2	1172	1171	1174
1695	2	1172	1171	1175
1696	2	1172	1171	1176
1697	3	1172	1173	1179
1698	7	1173	1172	1177
1699	7	1173	1172	1178
1700	1	1174	1171	1175
1701	1	1174	1171	1176
1702	1	1175	1171	1176
1703	6	1177	1172	1178
1704	5	1180	1181	1182
1705	4	1180	1181	1186
1706	4	1180	1181	1187
1707	2	1181	1180	1183
1708	2	1181	1180	1184
1709	2	1181	1180	1185
1710	3	1181	1182	1188
1711	7	1182	1181	1186
1712	7	1182	1181	1187
1713	1	1183	1180	1184
1714	1	1183	1180	1185
1715	1	1184	1180	1185
1716	6	1186	1181	1187
1717	5	1189	1190	1191
1718	4	1189	1190	1195
1719	4	1189	1190	1196
1720	2	1190	1189	1192
1721	2	1190	1189	1193
1722	2	1190	1189	1194
1723	3	1190	1191	1197
1724	7	1191	1190	1195
1725	7	1191	1190	1196
1726	1	1192	1189	1193
1727	1	1192	1189	1194
1728	1	1193	1189	1194
1729	6	1195	1190	1196
1730	5	1198	1199	1200
1731	4	1198	1199	1204
1732	4	1198	1199	1205
1733	2	1199	1198	1201
1734	2	1199	1198	1202
1735	2	1199	1198	1203
1736	3	1199	1200	1206
1737	7	1200	1199	1204
1738	7	1200	1199	1205
1739	1	1201	1198	1202
1740	1	1201	1198	1203
1741	1	1202	1198	1203
1742	6	1204	1199	1205
1743	5	1207	1208	1209
1744	4	1207	1208	1213
1745	4	1207	1208	1214
1746	2	1208	1207	1210
1747	2	1208	1207	1211
1748	2	1208	1207	1212
1749	3	1208	1209	1215
1750	7	1209	1208	1213
1751	7	1209	1208	1214
1752	1	1210	1207	1211
1753	1	1210	1207	1212
1754	1	1211	1207	1212
1755	6	1213	1208	1214
1756	5	1216	1217	1218
1757	4	1216	1217	1222
1758	4	1216	1217	1223
1759	2	1217	1216	1219
1760	2	1217	1216	1220
1761	2	1217	1216	1221
1762	3	1217	1218	1224
1763	7	1218	1217	1222
1764	7	1218	1217	1223
1765	1	1219	1216	1220
1766	1	1219	1216	1221
1767	1	1220	1216	1221
1768	6	1222	1217	1223
1769	5	1225	1226	1227
1770	4	1225	1226	1231
1771	4	1225	1226	1232
1772	2	1226	1225	1228
1773	2	1226	1225	1229
1774	2	1226	1225	1230
1775	3	1226	1227	1233
1776	7	1227	1226	1231
1777	7	1227	1226	1232
1778	1	1228	1225	1229
1779	1	1228	1225	1230
1780	1	1229	1225	1230
1781	6	1231	1226	1232
1782	5	1234	1235	1236
1783	4	1234	1235	1240
1784	4	1234	1235	1241
1785	2	1235	1234	1237
1786	2	1235	1234	1238
1787	2	1235	1234	1239
1788	3	1235	1236	1242
1789	7	1236	1235	1240
1790	7	1236	1235	1241
1791	1	1237	1234	1238
1792	1	1237	1234	1239
1793	1	1238	1234	1239
1794	6	1240	1235	1241
1795	5	1243	1244	1245
1796	4	1243	1244	1249
1797	4	1243	1244	1250
1798	2	1244	1243	1246
1799	2	1244	1243	1247
1800	2	1244	1243	1248
1801	3	1244	1245	1251
1802	7	1245	1244	1249
1803	7	1245	1244	1250
1804	1	1246	1243	1247
1805	1	1246	1243	1248
1806	1	1247	1243	1248
1807	6	1249	1244	1250
1808	5	1252	1253	1254
1809	4	1252	1253	1258
1810	4	1252	1253	1259
1811	2	1253	1252	1255
1812	2	1253	1252	1256
1813	2	1253	1252	1257
1814	3	1253	1254	1260
1815	7	1254	1253	1258
1816	7	1254	1253	1259
1817	1	1255	1252	1256
1818	1	1255	1252	1257
1819	1	1256	1252	1257
1820	6	1258	1253	1259
1821	5	1261	1262	1263
1822	4	1261	1262	1267
1823	4	1261	1262	1268
1824	2	1262	1261	1264
1825	2	1262	1261	1265
1826	2	1262	1261	1266
1827	3	1262	1263	1269
1828	7	1263	1262	1267
1829	7	1263	1262	1268
1830	1	1264	1261	1265
1831	1	1264	1261	1266
1832	1	1265	1261	1266
1833	6	1267	1262	1268
1834	5	1270	1271	1272
1835	4	1270	1271	1276
1836	4	1270	1271	1277
1837	2	1271	1270	1273
1838	2	1271	1270	1274
1839	2	1271	1270	1275
1840	3	1271	1272	1278
1841	7	1272	1271	1276
1842	7	1272	1271	1277
1843	1	1273	1270	1274
1844	1	1273	1270	1275
1845	1	1274	1270	1275
1846	6	1276	1271	1277
1847	5	1279	1280	1281
1848	4	1279	1280	1285
1849	4	1279	1280	1286
1850	2	1280	1279	1282
1851	2	1280	1279	1283
1852	2	1280	1279	1284
1853	3	1280	1281	1287
1854	7	1281	1280	1285
1855	7	1281	1280	1286
1856	1	1282	1279	1283
1857	1	1282	1279	1284
1858	1	1283	1279	1284
1859	6	1285	1280	1286
1860	5	1288	1289	1290
1861	4	1288	1289	1294
1862	4	1288	1289	1295
1863	2	1289	1288	1291
1864	2	1289	1288	1292
1865	2	1289	1288	1293
1866	3	1289	1290	1296
1867	7	1290	1289	1294
1868	7	1290	1289	1295
1869	1	1291	1288	1292
1870	1	1291	1288	1293
1871	1	1292	1288	1293
1872	6	1294	1289	1295
1873	5	1297	1298	1299
1874	4	1297	1298	1303
1875	4	1297	1298	1304
1876	2	1298	1297	1300
1877	2	1298	1297	1301
1878	2	1298	1297	1302
1879	3	1298	1299	1305
1880	7	1299	1298	1303
1881	7	1299	1298	1304
1882	1	1300	1297	1301
1883	1	1300	1297	1302
1884	1	1301	1297	1302
1885	6	1303	1298	1304
1886	5	1306	1307	1308
1887	4	1306	1307	1312
1888	4	1306	1307	1313
1889	2	1307	1306	1309
1890	2	1307	1306	1310
1891	2	1307	1306	1311
1892	3	1307	1308	1314
1893	7	1308	1307	1312
1894	7	1308	1307	1313
1895	1	1309	1306	1310
1896	1	1309	1306	1311
1897	1	1310	1306	1311
1898	6	1312	1307	1313
1899	5	1315	1316	1317
1900	4	1315	1316	1321
1901	4	1315	1316	1322
1902	2	1316	1315	1318
1903	2	1316	1315	1319
1904	2	1316	1315	1320
1905	3	1316	1317	1323
1906	7	1317	1316	1321
1907	7	1317	1316	1322
1908	1	1318	1315	1319
1909	1	1318	1315	1320
1910	1	1319	1315	1320
1911	6	1321	1316	1322
1912	5	1324	1325	1326
1913	4	1324	1325	1330
1914	4	1324	1325	1331
1915	2	1325	1324	1327
1916	2	1325	1324	1328
1917	2	1325	1324	1329
1918	3	1325	1326	1332
1919	7	1326	1325	1330
1920	7	1326	1325	1331
1921	1	1327	1324	1328
1922	1	1327	1324	1329
1923	1	1328	1324	1329
1924	6	1330	1325	1331
1925	5	1333	1334	1335
1926	4	1333	1334	1339
1927	4	1333	1334	1340
1928	2	1334	1333	1336
1929	2	1334	1333	1337
1930	2	1334	1333	1338
1931	3	1334	1335	1341
1932	7	1335	1334	1339
1933	7	1335	1334	1340
1934	1	1336	1333	1337
1935	1	1336	1333	1338
1936	1	1337	1333	1338
1937	6	1339	1334	1340
1938	5	1342	1343	1344
1939	4	1342	1343	1348
1940	4	1342	1343	1349
1941	2	1343	1342	1345
1942	2	1343	1342	1346
1943	2	1343	1342	1347
1944	3	1343	1344	1350
1945	7	1344	1343	1348
1946	7	1344	1343	1349
1947	1	1345	1342	1346
1948	1	1345	1342	1347
1949	1	1346	1342	1347
1950	6	1348	1343	1349
1951	5	1351	1352	1353
1952	4	1351	1352	1357
1953	4	1351	1352	1358
1954	2	1352	1351	1354
1955	2	1352	1351	1355
1956	2	1352	1351	1356
1957	3	1352	1353	1359
1958	7	1353	1352	1357
1959	7	1353	1352	1358
1960	1	1354	1351	1355
1961	1	1354	1351	1356
1962	1	1355	1351	1356
1963	6	1357	1352	1358
1964	5	1360	1361	1362
1965	4	1360	1361	1366
1966	4	1360	1361	1367
1967	2	1361	1360	1363
1968	2	1361	1360	1364
1969	2	1361	1360	1365
1970	3	1361	1362	1368
1971	7	1362	1361	1366
1972	7	1362	1361	1367
1973	1	1363	1360	1364
1974	1	1363	1360	1365
1975	1	1364	1360	1365
1976	6	1366	1361	1367
1977	5	1369	1370	1371
1978	4	1369	1370	1375
1979	4	1369	1370	1376
1980	2	1370	1369	1372
1981	2	1370	1369	1373
1982	2	1370	1369	1374
1983	3	1370	1371	1377
1984	7	1371	1370	1375
1985	7	1371	1370	1376
1986	1	1372	1369	1373
1987	1	1372	1369	1374
1988	1	1373	1369	1374
1989	6	1375	1370	1376
1990	5	1378	1379	1380
1991	4	1378	1379	1384
1992	4	1378	1379	1385
1993	2	1379	1378	1381
1994	2	1379	1378	1382
1995	2	1379	1378	1383
1996	3	1379	1380	1386
1997	7	1380	1379	1384
1998	7	1380	1379	1385
1999	1	1381	1378	1382
2000	1	1381	1378	1383
2001	1	1382	1378	1383
2002	6	1384	1379	1385
2003	5	1387	1388	1389
2004	4	1387	1388	1393
2005	4	1387	1388	1394
2006	2	1388	1387	1390
2007	2	1388	1387	1391
2008	2	1388	1387	1392
2009	3	1388	1389	1395
2010	7	1389	1388	1393
2011	7	1389	1388	1394
2012	1	1390	1387	1391
2013	1	1390	1387	1392
2014	1	1391	1387	1392
2015	6	1393	1388	1394
2016	5	1396	1397	1398
2017	4	1396	1397	1402
2018	4	1396	1397	1403
2019	2	1397	1396	1399
2020	2	1397	1396	1400
2021	2	1397	1396	1401
2022	3	1397	1398	1404
2023	7	1398	1397	1402
2024	7	1398	1397	1403
2025	1	1399	1396	1400
2026	1	1399	1396	1401
2027	1	1400	1396	1401
2028	6	1402	1397	1403
2029	5	1405	1406	1407
2030	4	1405	1406	1411
2031	4	1405	1406	1412
2032	2	1406	1405	1408
2033	2	1406	1405	1409
2034	2	1406	1405	1410
2035	3	1406	1407	1413
2036	7	1407	1406	1411
2037	7	1407	1406	1412
2038	1	1408	1405	1409
2039	1	1408	1405	1410
2040	1	1409	1405	1410
2041	6	1411	1406	1412
2042	5	1414	1415	1416
2043	4	1414	1415	1420
2044	4	1414	1415	1421
2045	2	1415	1414	1417
2046	2	1415	1414	1418
2047	2	1415	1414	1419
2048	3	1415	1416	1422
2049	7	1416	1415	1420
2050	7	1416	1415	1421
2051	1	1417	1414	1418
2052	1	1417	1414	1419
2053	1	1418	1414	1419
2054	6	1420	1415	1421
2055	5	1423	1424	1425
2056	4	1423	1424	1429
2057	4	1423	1424	1430
2058	2	1424	1423	1426
2059	2	1424	1423	1427
2060	2	1424	1423	1428
2061	3	1424	1425	1431
2062	7	1425	1424	1429
2063	7	1425	1424	1430
2064	1	1426	1423	1427
2065	1	1426	1423	1428
2066	1	1427	1423	1428
2067	6	1429	1424	1430
2068	5	1432	1433	1434
2069	4	1432	1433	1438
2070	4	1432	1433	1439
2071	2	1433	1432	1435
2072	2	1433	1432	1436
2073	2	1433	1432	1437
2074	3	1433	1434	1440
2075	7	1434	1433	1438
2076	7	1434	1433	1439
2077	1	1435	1432	1436
2078	1	1435	1432	1437
2079	1	1436	1432	1437
2080	6	1438	1433	1439
2081	5	1441	1442	1443
2082	4	1441	1442	1447
2083	4	1441	1442	1448
2084	2	1442	1441	1444
2085	2	1442	1441	1445
2086	2	1442	1441	1446
2087	3	1442	1443	1449
2088	7	1443	1442	1447
2089	7	1443	1442	1448
2090	1	1444	1441	1445
2091	1	1444	1441	1446
2092	1	1445	1441	1446
2093	6	1447	1442	1448
2094	5	1450	1451	1452
2095	4	1450	1451	1456
2096	4	1450	1451	1457
2097	2	1451	1450	1453
2098	2	1451	1450	1454
2099	2	1451	1450	1455
2100	3	1451	1452	1458
2101	7	1452	1451	1456
2102	7	1452	1451	1457
2103	1	1453	1450	1454
2104	1	1453	1450	1455
2105	1	1454	1450	1455
2106	6	1456	1451	1457
2107	5	1459	1460	1461
2108	4	1459	1460	1465
2109	4	1459	1460	1466
2110	2	1460	1459	1462
2111	2	1460	1459	1463
2112	2	1460	1459	1464
2113	3	1460	1461	1467
2114	7	1461	1460	1465
2115	7	1461	1460	1466
2116	1	1462	1459	1463
2117	1	1462	1459	1464
2118	1	1463	1459	1464
2119	6	1465	1460	1466
2120	5	1468	1469	1470
2121	4	1468	1469	1474
2122	4	1468	1469	1475
2123	2	1469	1468	1471
2124	2	1469	1468	1472
2125	2	1469	1468	1473
2126	3	1469	1470	1476
2127	7	1470	1469	1474
2128	7	1470	1469	1475
2129	1	1471	1468	1472
2130	1	1471	1468	1473
2131	1	1472	1468	1473
2132	6	1474	1469	1475
2133	5	1477	1478	1479
2134	4	1477	1478	1483
2135	4	1477	1478	1484
2136	2	1478	1477	1480
2137	2	1478	1477	1481
2138	2	1478	1477	1482
2139	3	1478	1479	1485
2140	7	1479	1478	1483
2141	7	1479	1478	1484
2142	1	1480	1477	1481
2143	1	1480	1477	1482
2144	1	1481	1477	1482
2145	6	1483	1478	1484
2146	5	1486	1487	1488
2147	4	1486	1487	1492
2148	4	1486	1487	1493
2149	2	1487	1486	1489
2150	2	1487	1486	1490
2151	2	1487	1486	1491
2152	3	1487	1488	1494
2153	7	1488	1487	1492
2154	7	1488	1487	1493
2155	1	1489	1486	1490
2156	1	1489	1486	1491
2157	1	1490	1486	1491
2158	6	1492	1487	1493
2159	5	1495	1496	1497
2160	4	1495	1496	1501
2161	4	1495	1496	1502
2162	2	1496	1495	1498
2163	2	1496	1495	1499
2164	2	1496	1495	1500
2165	3	1496	1497	1503
2166	7	1497	1496	1501
2167	7	1497	1496	1502
2168	1	1498	1495	1499
2169	1	1498	1495	1500
2170	1	1499	1495	1500
2171	6	1501	1496	1502
2172	5	1504	1505	1506
2173	4	1504	1505	1510
2174	4	1504	1505	1511
2175	2	1505	1504	1507
2176	2	1505	1504	1508
2177	2	1505	1504	1509
2178	3	1505	1506	1512
2179	7	1506	1505	1510
2180	7	1506	1505	1511
2181	1	1507	1504	1508
2182	1	1507	1504	1509
2183	1	1508	1504	1509
2184	6	1510	1505	1511
2185	5	1513	1514	1515
2186	4	1513	1514	1519
2187	4	1513	1514	1520
2188	2	1514	1513	1516
2189	2	1514	1513	1517
2190	2	1514	1513	1518
2191	3	1514	1515	1521
2192	7	1515	1514	1519
2193	7	1515	1514	1520
2194	1	1516	1513	1517
2195	1	1516	1513	1518
2196	1	1517	1513	1518
2197	6	1519	1514	1520
2198	5	1522	1523	1524
2199	4	1522	1523	1528
2200	4	1522	1523	1529
2201	2	1523	1522	1525
2202	2	1523	1522	1526
2203	2	1523	1522	1527
2204	3	1523	1524	1530
2205	7	1524	1523	1528
2206	7	1524	1523	1529
2207	1	1525	1522	1526
2208	1	1525	1522	1527
2209	1	1526	1522	1527
2210	6	1528	1523	1529
2211	5	1531	1532	1533
2212	4	1531	1532	1537
2213	4	1531	1532	1538
2214	2	1532	1531	1534
2215	2	1532	1531	1535
2216	2	1532	1531	1536
2217	3	1532	1533	1539
2218	7	1533	1532	1537
2219	7	1533	1532	1538
2220	1	1534	1531	1535
2221	1	1534	1531	1536
2222	1	1535	1531	1536
2223	6	1537	1532	1538
2224	5	1540	1541	1542
2225	4	1540	1541	1546
2226	4	1540	1541	1547
2227	2	1541	1540	1543
2228	2	1541	1540	1544
2229	2	1541	1540	1545
2230	3	1541	1542	1548
2231	7	1542	1541	1546
2232	7	1542	1541	1547
2233	1	1543	1540	1544
2234	1	1543	1540	1545
2235	1	1544	1540	1545
2236	6	1546	1541	1547
2237	5	1549	1550	1551
2238	4	1549	1550	1555
2239	4	1549	1550	1556
2240	2	1550	1549	1552
2241	2	1550	1549	1553
2242	2	1550	1549	1554
2243	3	1550	1551	1557
2244	7	1551	1550	1555
2245	7	1551	1550	1556
2246	1	1552	1549	1553
2247	1	1552	1549	1554
2248	1	1553	1549	1554
2249	6	1555	1550	1556
2250	5	1558	1559	1560
2251	4	1558	1559	1564
2252	4	1558	1559	1565
2253	2	1559	1558	1561
2254	2	1559	1558	1562
2255	2	1559	1558	1563
2256	3	1559	1560	1566
2257	7	1560	1559	1564
2258	7	1560	1559	1565
2259	1	1561	1558	1562
2260	1	1561	1558	1563
2261	1	1562	1558	1563
2262	6	1564	1559	1565
2263	5	1567	1568	1569
2264	4	1567	1568	1573
2265	4	1567	1568	1574
2266	2	1568	1567	1570
2267	2	1568	1567	1571
2268	2	1568	1567	1572
2269	3	1568	1569	1575
2270	7	1569	1568	1573
2271	7	1569	1568	1574
2272	1	1570	1567	1571
2273	1	1570	1567	1572
2274	1	1571	1567	1572
2275	6	1573	1568	1574
2276	5	1576	1577	1578
2277	4	1576	1577	1582
2278	4	1576	1577	1583
2279	2	1577	1576	1579
2280	2	1577	1576	1580
2281	2	1577	1576	1581
2282	3	1577	1578	1584
2283	7	1578	1577	1582
2284	7	1578	1577	1583
2285	1	1579	1576	1580
2286	1	1579	1576	1581
2287	1	1580	1576	1581
2288	6	1582	1577	1583
2289	5	1585	1586	1587
2290	4	1585	1586	1591
2291	4	1585	1586	1592
2292	2	1586	1585	1588
2293	2	1586	1585	1589
2294	2	1586	1585	1590
2295	3	1586	1587	1593
2296	7	1587	1586	1591
2297	7	1587	1586	1592
2298	1	1588	1585	1589
2299	1	1588	1585	1590
2300	1	1589	1585	1590
2301	6	1591	1586	1592
2302	5	1594	1595	1596
2303	4	1594	1595	1600
2304	4	1594	1595	1601
2305	2	1595	1594	1597
2306	2	1595	1594	1598
2307	2	1595	1594	1599
2308	3	1595	1596	1602
2309	7	1596	1595	1600
2310	7	1596	1595	1601
2311	1	1597	1594	1598
2312	1	1597	1594	1599
2313	1	1598	1594	1599
2314	6	1600	1595	1601
2315	5	1603	1604	1605
2316	4	1603	1604	1609
2317	4	1603	1604	1610
2318	2	1604	1603	1606
2319	2	1604	1603	1607
2320	2	1604	1603	1608
2321	3	1604	1605	1611
2322	7	1605	1604	1609
2323	7	1605	1604	1610
2324	1	1606	1603	1607
2325	1	1606	1603	1608
2326	1	1607	1603	1608
2327	6	1609	1604	1610
2328	5	1612	1613	1614
2329	4	1612	1613	1618
2330	4	1612	1613	1619
2331	2	1613	1612	1615
2332	2	1613	1612	1616
2333	2	1613	1612	1617
2334	3	1613	1614	1620
2335	7	1614	1613	1618
2336	7	1614	1613	1619
2337	1	1615	1612	1616
2338	1	1615	1612	1617
2339	1	1616	1612	1617
2340	6	1618	1613	1619
2341	5	1621	1622	1623
2342	4	1621	1622	1627
2343	4	1621	1622	1628
2344	2	1622	1621	1624
2345	2	1622	1621	1625
2346	2	1622	1621	1626
2347	3	1622	1623	1629
2348	7	1623	1622	1627
2349	7	1623	1622	1628
2350	1	1624	1621	1625
2351	1	1624	1621	1626
2352	1	1625	1621	1626
2353	6	1627	1622	1628
2354	5	1630	1631	1632
2355	4	1630	1631	1636
2356	4	1630	1631	1637
2357	2	1631	1630	1633
2358	2	1631	1630	1634
2359	2	1631	1630	1635
2360	3	1631	1632	1638
2361	7	1632	1631	1636
2362	7	1632	1631	1637
2363	1	1633	1630	1634
2364	1	1633	1630	1635
2365	1	1634	1630	1635
2366	6	1636	1631	1637
2367	5	1639	1640	1641
2368	4	1639	1640	1645
2369	4	1639	1640	1646
2370	2	1640	1639	1642
2371	2	1640	1639	1643
2372	2	1640	1639	1644
2373	3	1640	1641	1647
2374	7	1641	1640	1645
2375	7	1641	1640	1646
2376	1	1642	1639	1643
2377	1	1642	1639	1644
2378	1	1643	1639	1644
2379	6	1645	1640	1646
2380	5	1648	1649	1650
2381	4	1648	1649	1654
2382	4	1648	1649	1655
2383	2	1649	1648	1651
2384	2	1649	1648	1652
2385	2	1649	1648	1653
2386	3	1649	1650	1656
2387	7	1650	1649	1654
2388	7	1650	1649	1655
2389	1	1651	1648	1652
2390	1	1651	1648	1653
2391	1	1652	1648	1653
2392	6	1654	1649	1655
2393	5	1657	1658	1659
2394	4	1657	1658	1663
2395	4	1657	1658	1664
2396	2	1658	1657	1660
2397	2	1658	1657	1661
2398	2	1658	1657	1662
2399	3	1658	1659	1665
2400	7	1659	1658	1663
2401	7	1659	1658	1664
2402	1	1660	1657	1661
2403	1	1660	1657	1662
2404	1	1661	1657	1662
2405	6	1663	1658	1664
2406	5	1666	1667	1668
2407	4	1666	1667	1672
2408	4	1666	1667	1673
2409	2	1667	1666	1669
2410	2	1667	1666	1670
2411	2	1667	1666	1671
2412	3	1667	1668	1674
2413	7	1668	1667	1672
2414	7	1668	1667	1673
2415	1	1669	1666	1670
2416	1	1669	1666	1671
2417	1	1670	1666	1671
2418	6	1672	1667	1673
2419	5	1675	1676	1677
2420	4	1675	1676	1681
2421	4	1675	1676	1682
2422	2	1676	1675	1678
2423	2	1676	1675	1679
2424	2	1676	1675	1680
2425	3	1676	1677	1683
2426	7	1677	1676	1681
2427	7	1677	1676	1682
2428	1	1678	1675	1679
2429	1	1678	1675	1680
2430	1	1679	1675	1680
2431	6	1681	1676	1682
2432	5	1684	1685	1686
2433	4	1684	1685	1690
2434	4	1684	1685	1691
2435	2	1685	1684	1687
2436	2	1685	1684	1688
2437	2	1685	1684	1689
2438	3	1685	1686	1692
2439	7	1686	1685	1690
2440	7	1686	1685	1691
2441	1	1687	1684	1688
2442	1	1687	1684	1689
2443	1	1688	1684	1689
2444	6	1690	1685	1691
2445	5	1693	1694	1695
2446	4	1693	1694	1699
2447	4	1693	1694	1700
2448	2	1694	1693	1696
2449	2	1694	1693	1697
2450	2	1694	1693	1698
2451	3	1694	1695	1701
2452	7	1695	1694	1699
2453	7	1695	1694	1700
2454	1	1696	1693	1697
2455	1	1696	1693	1698
2456	1	1697	1693	1698
2457	6	1699	1694	1700
2458	5	1702	1703	1704
2459	4	1702	1703	1708
2460	4	1702	1703	1709
2461	2	1703	1702	1705
2462	2	1703	1702	1706
2463	2	1703	1702	1707
2464	3	1703	1704	1710
2465	7	1704	1703	1708
2466	7	1704	1703	1709
2467	1	1705	1702	1706
2468	1	1705	1702	1707
2469	1	1706	1702	1707
2470	6	1708	1703	1709
2471	5	1711	1712	1713
2472	4	1711	1712	1717
2473	4	1711	1712	1718
2474	2	1712	1711	1714
2475	2	1712	1711	1715
2476	2	1712	1711	1716
2477	3	1712	1713	1719
2478	7	1713	1712	1717
2479	7	1713	1712	1718
2480	1	1714	1711	1715
2481	1	1714	1711	1716
2482	1	1715	1711	1716
2483	6	1717	1712	1718
2484	5	1720	1721	1722
2485	4	1720	1721	1726
2486	4	1720	1721	1727
2487	2	1721	1720	1723
2488	2	1721	1720	1724
2489	2	1721	1720	1725
2490	3	1721	1722	1728
2491	7	1722	1721	1726
2492	7	1722	1721	1727
2493	1	1723	1720	1724
2494	1	1723	1720	1725
2495	1	1724	1720	1725
2496	6	1726	1721	1727
2497	5	1729	1730	1731
2498	4	1729	1730	1735
2499	4	1729	1730	1736
2500	2	1730	1729	1732
2501	2	1730	1729	1733
2502	2	1730	1729	1734
2503	3	1730	1731	1737
2504	7	1731	1730	1735
2505	7	1731	1730	1736
2506	1	1732	1729	1733
2507	1	1732	1729	1734
2508	1	1733	1729	1734
2509	6	1735	1730	1736
2510	5	1738	1739	1740
2511	4	1738	1739	1744
2512	4	1738	1739	1745
2513	2	1739	1738	1741
2514	2	1739	1738	1742
2515	2	1739	1738	1743
2516	3	1739	1740	1746
2517	7	1740	1739	1744
2518	7	1740	1739	1745
2519	1	1741	1738	1742
2520	1	1741	1738	1743
2521	1	1742	1738	1743
2522	6	1744	1739	1745
2523	5	1747	1748	1749
2524	4	1747	1748	1753
2525	4	1747	1748	1754
2526	2	1748	1747	1750
2527	2	1748	1747	1751
2528	2	1748	1747	1752
2529	3	1748	1749	1755
2530	7	1749	1748	1753
2531	7	1749	1748	1754
2532	1	1750	1747	1751
2533	1	1750	1747	1752
2534	1	1751	1747	1752
2535	6	1753	1748	1754
2536	5	1756	1757	1758
2537	4	1756	1757	1762
2538	4	1756	1757	1763
2539	2	1757	1756	1759
2540	2	1757	1756	1760
2541	2	1757	1756	1761
2542	3	1757	1758	1764
2543	7	1758	1757	1762
2544	7	1758	1757	1763
2545	1	1759	1756	1760
2546	1	1759	1756	1761
2547	1	1760	1756	1761
2548	6	1762	1757	1763
2549	5	1765	1766	1767
2550	4	1765	1766	1771
2551	4	1765	1766	1772
2552	2	1766	1765	1768
2553	2	1766	1765	1769
2554	2	1766	1765	1770
2555	3	1766	1767	1773
2556	7	1767	1766	1771
2557	7	1767	1766	1772
2558	1	1768	1765	1769
2559	1	1768	1765	1770
2560	1	1769	1765	1770
2561	6	1771	1766	1772
2562	5	1774	1775	1776
2563	4	1774	1775	1780
2564	4	1774	1775	1781
2565	2	1775	1774	1777
2566	2	1775	1774	1778
2567	2	1775	1774	1779
2568	3	1775	1776	1782
2569	7	1776	1775	1780
2570	7	1776	1775	1781
2571	1	1777	1774	1778
2572	1	1777	1774	1779
2573	1	1778	1774	1779
2574	6	1780	1775	1781
2575	5	1783	1784	1785
2576	4	1783	1784	1789
2577	4	1783	1784	1790
2578	2	1784	1783	1786
2579	2	1784	1783	1787
2580	2	1784	1783	1788
2581	3	1784	1785	1791
2582	7	1785	1784	1789
2583	7	1785	1784	1790
2584	1	1786	1783	1787
2585	1	1786	1783	1788
2586	1	1787	1783	1788
2587	6	1789	1784	1790
2588	5	1792	1793	1794
2589	4	1792	1793	1798
2590	4	1792	1793	1799
2591	2	1793	1792	1795
2592	2	1793	1792	1796
2593	2	1793	1792	1797
2594	3	1793	1794	1800
2595	7	1794	1793	1798
2596	7	1794	1793	1799
2597	1	1795	1792	1796
2598	1	1795	1792	1797
2599	1	1796	1792	1797
2600	6	1798	1793	1799
2601	5	1801	1802	1803
2602	4	1801	1802	1807
2603	4	1801	1802	1808
2604	2	1802	1801	1804
2605	2	1802	1801	1805
2606	2	1802	1801	1806
2607	3	1802	1803	1809
2608	7	1803	1802	1807
2609	7	1803	1802	1808
2610	1	1804	1801	1805
2611	1	1804	1801	1806
2612	1	1805	1801	1806
2613	6	1807	1802	1808
2614	5	1810	1811	1812
2615	4	1810	1811	1816
2616	4	1810	1811	1817
2617	2	1811	1810	1813
2618	2	1811	1810	1814
2619	2	1811	1810	1815
2620	3	1811	1812	1818
2621	7	1812	1811	1816
2622	7	1812	1811	1817
2623	1	1813	1810	1814
2624	1	1813	1810	1815
2625	1	1814	1810	1815
2626	6	1816	1811	1817
2627	5	1819	1820	1821
2628	4	1819	1820	1825
2629	4	1819	1820	1826
2630	2	1820	1819	1822
2631	2	1820	1819	1823
2632	2	1820	1819	1824
2633	3	1820	1821	1827
2634	7	1821	1820	1825
2635	7	1821	1820	1826
2636	1	1822	1819	1823
2637	1	1822	1819	1824
2638	1	1823	1819	1824
2639	6	1825	1820	1826
2640	5	1828	1829	1830
2641	4	1828	1829	1834
2642	4	1828	1829	1835
2643	2	1829	1828	1831
2644	2	1829	1828	1832
2645	2	1829	1828	1833
2646	3	1829	1830	1836
2647	7	1830	1829	1834
2648	7	1830	1829	1835
2649	1	1831	1828	1832
2650	1	1831	1828	1833
2651	1	1832	1828	1833
2652	6	1834	1829	1835
2653	5	1837	1838	1839
2654	4	1837	1838	1843
2655	4	1837	1838	1844
2656	2	1838	1837	1840
2657	2	1838	1837	1841
2658	2	1838	1837	1842
2659	3	1838	1839	1845
2660	7	1839	1838	1843
2661	7	1839	1838	1844
2662	1	1840	1837	1841
2663	1	1840	1837	1842
2664	1	1841	1837	1842
2665	6	1843	1838	1844
2666	5	1846	1847	1848
2667	4	1846	1847	1852
2668	4	1846	1847	1853
2669	2	1847	1846	1849
2670	2	1847	1846	1850
2671	2	1847	1846	1851
2672	3	1847	1848	1854
2673	7	1848	1847	1852
2674	7	1848	1847	1853
2675	1	1849	1846	1850
2676	1	1849	1846	1851
2677	1	1850	1846	1851
2678	6	1852	1847	1853
2679	5	1855	1856	1857
2680	4	1855	1856	1861
2681	4	1855	1856	1862
2682	2	1856	1855	1858
2683	2	1856	1855	1859
2684	2	1856	1855	1860
2685	3	1856	1857	1863
2686	7	1857	1856	1861
2687	7	1857	1856	1862
2688	1	1858	1855	1859
2689	1	1858	1855	1860
2690	1	1859	1855	1860
2691	6	1861	1856	1862
2692	5	1864	1865	1866
2693	4	1864	1865	1870
2694	4	1864	1865	1871
2695	2	1865	1864	1867
2696	2	1865	1864	1868
2697	2	1865	1864	1869
2698	3	1865	1866	1872
2699	7	1866	1865	1870
2700	7	1866	1865	1871
2701	1	1867	1864	1868
2702	1	1867	1864	1869
2703	1	1868	1864	1869
2704	6	1870	1865	1871
2705	5	1873	1874	1875
2706	4	1873	1874	1879
2707	4	1873	1874	1880
2708	2	1874	1873	1876
2709	2	1874	1873	1877
2710	2	1874	1873	1878
2711	3	1874	1875	1881
2712	7	1875	1874	1879
2713	7	1875	1874	1880
2714	1	1876	1873	1877
2715	1	1876	1873	1878
2716	1	1877	1873	1878
2717	6	1879	1874	1880
2718	5	1882	1883	1884
2719	4	1882	1883	1888
2720	4	1882	1883	1889
2721	2	1883	1882	1885
2722	2	1883	1882	1886
2723	2	1883	1882	1887
2724	3	1883	1884	1890
2725	7	1884	1883	1888
2726	7	1884	1883	1889
2727	1	1885	1882	1886
2728	1	1885	1882	1887
2729	1	1886	1882	1887
2730	6	1888	1883	1889
2731	5	1891	1892	1893
2732	4	1891	1892	1897
2733	4	1891	1892	1898
2734	2	1892	1891	1894
2735	2	1892	1891	1895
2736	2	1892	1891	1896
2737	3	1892	1893	1899
2738	7	1893	1892	1897
2739	7	1893	1892	1898
2740	1	1894	1891	1895
2741	1	1894	1891	1896
2742	1	1895	1891	1896
2743	6	1897	1892	1898
2744	5	1900	1901	1902
2745	4	1900	1901	1906
2746	4	1900	1901	1907
2747	2	1901	1900	1903
2748	2	1901	1900	1904
2749	2	1901	1900	1905
2750	3	1901	1902	1908
2751	7	1902	1901	1906
2752	7	1902	1901	1907
2753	1	1903	1900	1904
2754	1	1903	1900	1905
2755	1	1904	1900	1905
2756	6	1906	1901	1907
2757	5	1909	1910	1911
2758	4	1909	1910	1915
2759	4	1909	1910	1916
2760	2	1910	1909	1912
2761	2	1910	1909	1913
2762	2	1910	1909	1914
2763	3	1910	1911	1917
2764	7	1911	1910	1915
2765	7	1911	1910	1916
2766	1	1912	1909	1913
2767	1	1912	1909	1914
2768	1	1913	1909	1914
2769	6	1915	1910	1916
2770	5	1918	1919	1920
2771	4	1918	1919	1924
2772	4	1918	1919	1925
2773	2	1919	1918	1921
2774	2	1919	1918	1922
2775	2	1919	1918	1923
2776	3	1919	1920	1926
2777	7	1920	1919	1924
2778	7	1920	1919	1925
2779	1	1921	1918	1922
2780	1	1921	1918	1923
2781	1	1922	1918	1923
2782	6	1924	1919	1925
2783	5	1927	1928	1929
2784	4	1927	1928	1933
2785	4	1927	1928	1934
2786	2	1928	1927	1930
2787	2	1928	1927	1931
2788	2	1928	1927	1932
2789	3	1928	1929	1935
2790	7	1929	1928	1933
2791	7	1929	1928	1934
2792	1	1930	1927	1931
2793	1	1930	1927	1932
2794	1	1931	1927	1932
2795	6	1933	1928	1934
2796	5	1936	1937	1938
2797	4	1936	1937	1942
2798	4	1936	1937	1943
2799	2	1937	1936	1939
2800	2	1937	1936	1940
2801	2	1937	1936	1941
2802	3	1937	1938	1944
2803	7	1938	1937	1942
2804	7	1938	1937	1943
2805	1	1939	1936	1940
2806	1	1939	1936	1941
2807	1	1940	1936	1941
2808	6	1942	1937	1943
2809	5	1945	1946	1947
2810	4	1945	1946	1951
2811	4	1945	1946	1952
2812	2	1946	1945	1948
2813	2	1946	1945	1949
2814	2	1946	1945	1950
2815	3	1946	1947	1953
2816	7	1947	1946	1951
2817	7	1947	1946	1952
2818	1	1948	1945	1949
2819	1	1948	1945	1950
2820	1	1949	1945	1950
2821	6	1951	1946	1952
2822	5	1954	1955	1956
2823	4	1954	1955	1960
2824	4	1954	1955	1961
2825	2	1955	1954	1957
2826	2	1955	1954	1958
2827	2	1955	1954	1959
2828	3	1955	1956	1962
2829	7	1956	1955	1960
2830	7	1956	1955	1961
2831	1	1957	1954	1958
2832	1	1957	1954	1959
2833	1	1958	1954	1959
2834	6	1960	1955	1961
2835	5	1963	1964	1965
2836	4	1963	1964	1969
2837	4	1963	1964	1970
2838	2	1964	1963	1966
2839	2	1964	1963	1967
2840	2	1964	1963	1968
2841	3	1964	1965	1971
2842	7	1965	1964	1969
2843	7	1965	1964	1970
2844	1	1966	1963	1967
2845	1	1966	1963	1968
2846	1	1967	1963	1968
2847	6	1969	1964	1970
2848	5	1972	1973	1974
2849	4	1972	1973	1978
2850	4	1972	1973	1979
2851	2	1973	1972	1975
2852	2	1973	1972	1976
2853	2	1973	1972	1977
2854	3	1973	1974	1980
2855	7	1974	1973	1978
2856	7	1974	1973	1979
2857	1	1975	1972	1976
2858	1	1975	1972	1977
2859	1	1976	1972	1977
2860	6	1978	1973	1979
2861	5	1981	1982	1983
2862	4	1981	1982	1987
2863	4	1981	1982	1988
2864	2	1982	1981	1984
2865	2	1982	1981	1985
2866	2	1982	1981	1986
2867	3	1982	1983	1989
2868	7	1983	1982	1987
2869	7	1983	1982	1988
2870	1	1984	1981	1985
2871	1	1984	1981	1986
2872	1	1985	1981	1986
2873	6	1987	1982	1988
2874	5	1990	1991	1992
2875	4	1990	1991	1996
2876	4	1990	1991	1997
2877	2	1991	1990	1993
2878	2	1991	1990	1994
2879	2	1991	1990	1995
2880	3	1991	1992	1998
2881	7	1992	1991	1996
2882	7	1992	1991	1997
2883	1	1993	1990	1994
2884	1	1993	1990	1995
2885	1	1994	1990	1995
2886	6	1996	1991	1997
2887	5	1999	2000	2001
2888	4	1999	2000	2005
2889	4	1999	2000	2006
2890	2	2000	1999	2002
2891	2	2000	1999	2003
2892	2	2000	1999	2004
2893	3	2000	2001	2007
2894	7	2001	2000	2005
2895	7	2001	2000	2006
2896	1	2002	1999	2003
2897	1	2002	1999	2004
2898	1	2003	1999	2004
2899	6	2005	2000	2006
2900	5	2008	2009	2010
2901	4	2008	2009	2014
2902	4	2008	2009	2015
2903	2	2009	2008	2011
2904	2	2009	2008	2012
2905	2	2009	2008	2013
2906	3	2009	2010	2016
2907	7	2010	2009	2014
2908	7	2010	2009	2015
2909	1	2011	2008	2012
2910	1	2011	2008	2013
2911	1	2012	2008	2013
2912	6	2014	2009	2015
2913	5	2017	2018	2019
2914	4	2017	2018	2023
2915	4	2017	2018	2024
2916	2	2018	2017	2020
2917	2	2018	2017	2021
2918	2	2018	2017	2022
2919	3	2018	2019	2025
2920	7	2019	2018	2023
2921	7	2019	2018	2024
2922	1	2020	2017	2021
2923	1	2020	2017	2022
2924	1	2021	2017	2022
2925	6	2023	2018	2024
2926	5	2026	2027	2028
2927	4	2026	2027	2032
2928	4	2026	2027	2033
2929	2	2027	2026	2029
2930	2	2027	2026	2030
2931	2	2027	2026	2031
2932	3	2027	2028	2034
2933	7	2028	2027	2032
2934	7	2028	2027	2033
2935	1	2029	2026	2030
2936	1	2029	2026	2031
2937	1	2030	2026	2031
2938	6	2032	2027	2033
2939	5	2035	2036	2037
2940	4	2035	2036	2041
2941	4	2035	2036	2042
2942	2	2036	2035	2038
2943	2	2036	2035	2039
2944	2	2036	2035	2040
2945	3	2036	2037	2043
2946	7	2037	2036	2041
2947	7	2037	2036	2042
2948	1	2038	2035	2039
2949	1	2038	2035	2040
2950	1	2039	2035	2040
2951	6	2041	2036	2042
2952	5	2044	2045	2046
2953	4	2044	2045	2050
2954	4	2044	2045	2051
2955	2	2045	2044	2047
2956	2	2045	2044	2048
2957	2	2045	2044	2049
2958	3	2045	2046	2052
2959	7	2046	2045	2050
2960	7	2046	2045	2051
2961	1	2047	2044	2048
2962	1	2047	2044	2049
2963	1	2048	2044	2049
2964	6	2050	2045	2051
2965	5	2053	2054	2055
2966	4	2053	2054	2059
2967	4	2053	2054	2060
2968	2	2054	2053	2056
2969	2	2054	2053	2057
2970	2	2054	2053	2058
2971	3	2054	2055	2061
2972	7	2055	2054	2059
2973	7	2055	2054	2060
2974	1	2056	2053	2057
2975	1	2056	2053	2058
2976	1	2057	2053	2058
2977	6	2059	2054	2060
2978	5	2062	2063	2064
2979	4	2062	2063	2068
2980	4	2062	2063	2069
2981	2	2063	2062	2065
2982	2	2063	2062	2066
2983	2	2063	2062	2067
2984	3	2063	2064	2070
2985	7	2064	2063	2068
2986	7	2064	2063	2069
2987	1	2065	2062	2066
2988	1	2065	2062	2067
2989	1	2066	2062	2067
2990	6	2068	2063	2069
2991	5	2071	2072	2073
2992	4	2071	2072	2077
2993	4	2071	2072	2078
2994	2	2072	2071	2074
2995	2	2072	2071	2075
2996	2	2072	2071	2076
2997	3	2072	2073	2079
2998	7	2073	2072	2077
2999	7	2073	2072	2078
3000	1	2074	2071	2075
3001	1	2074	2071	2076
3002	1	2075	2071	2076
3003	6	2077	2072	2078
3004	5	2080	2081	2082
3005	4	2080	2081	2086
3006	4	2080	2081	2087
3007	2	2081	2080	2083
3008	2	2081	2080	2084
3009	2	2081	2080	2085
3010	3	2081	2082	2088
3011	7	2082	2081	2086
3012	7	2082	2081	2087
3013	1	2083	2080	2084
3014	1	2083	2080	2085
3015	1	2084	2080	2085
3016	6	2086	2081	2087
3017	5	2089	2090	2091
3018	4	2089	2090	2095
3019	4	2089	2090	2096
3020	2	2090	2089	2092
3021	2	2090	2089	2093
3022	2	2090	2089	2094
3023	3	2090	2091	2097
3024	7	2091	2090	2095
3025	7	2091	2090	2096
3026	1	2092	2089	2093
3027	1	2092	2089	2094
3028	1	2093	2089	2094
3029	6	2095	2090	2096
3030	5	2098	2099	2100
3031	4	2098	2099	2104
3032	4	2098	2099	2105
3033	2	2099	2098	2101
3034	2	2099	2098	2102
3035	2	2099	2098	2103
3036	3	2099	2100	2106
3037	7	2100	2099	2104
3038	7	2100	2099	2105
3039	1	2101	2098	2102
3040	1	2101	2098	2103
3041	1	2102	2098	2103
3042	6	2104	2099	2105
3043	5	2107	2108	2109
3044	4	2107	2108	2113
3045	4	2107	2108	2114
3046	2	2108	2107	2110
3047	2	2108	2107	2111
3048	2	2108	2107	2112
3049	3	2108	2109	2115
3050	7	2109	2108	2113
3051	7	2109	2108	2114
3052	1	2110	2107	2111
3053	1	2110	2107	2112
3054	1	2111	2107	2112
3055	6	2113	2108	2114
3056	5	2116	2117	2118
3057	4	2116	2117	2122
3058	4	2116	2117	2123
3059	2	2117	2116	2119
3060	2	2117	2116	2120
3061	2	2117	2116	2121
3062	3	2117	2118	2124
3063	7	2118	2117	2122
3064	7	2118	2117	2123
3065	1	2119	2116	2120
3066	1	2119	2116	2121
3067	1	2120	2116	2121
3068	6	2122	2117	2123
3069	5	2125	2126	2127
3070	4	2125	2126	2131
3071	4	2125	2126	2132
3072	2	2126	2125	2128
3073	2	2126	2125	2129
3074	2	2126	2125	2130
3075	3	2126	2127	2133
3076	7	2127	2126	2131
3077	7	2127	2126	2132
3078	1	2128	2125	2129
3079	1	2128	2125	2130
3080	1	2129	2125	2130
3081	6	2131	2126	2132
3082	5	2134	2135	2136
3083	4	2134	2135	2140
3084	4	2134	2135	2141
3085	2	2135	2134	2137
3086	2	2135	2134	2138
3087	2	2135	2134	2139
3088	3	2135	2136	2142
3089	7	2136	2135	2140
3090	7	2136	2135	2141
3091	1	2137	2134	2138
3092	1	2137	2134	2139
3093	1	2138	2134	2139
3094	6	2140	2135	2141
3095	5	2143	2144	2145
3096	4	2143	2144	2149
3097	4	2143	2144	2150
3098	2	2144	2143	2146
3099	2	2144	2143	2147
3100	2	2144	2143	2148
3101	3	2144	2145	2151
3102	7	2145	2144	2149
3103	7	2145	2144	2150
3104	1	2146	2143	2147
3105	1	2146	2143	2148
3106	1	2147	2143	2148
3107	6	2149	2144	2150
3108	5	2152	2153	2154
3109	4	2152	2153	2158
3110	4	2152	2153	2159
3111	2	2153	2152	2155
3112	2	2153	2152	2156
3113	2	2153	2152	2157
3114	3	2153	2154	2160
3115	7	2154	2153	2158
3116	7	2154	2153	2159
3117	1	2155	2152	2156
3118	1	2155	2152	2157
3119	1	2156	2152	2157
3120	6	2158	2153	2159
3121	5	2161	2162	2163
3122	4	2161	2162	2167
3123	4	2161	2162	2168
3124	2	2162	2161	2164
3125	2	2162	2161	2165
3126	2	2162	2161	2166
3127	3	2162	2163	2169
3128	7	2163	2162	2167
3129	7	2163	2162	2168
3130	1	2164	2161	2165
3131	1	2164	2161	2166
3132	1	2165	2161	2166
3133	6	2167	2162	2168
3134	5	2170	2171	2172
3135	4	2170	2171	2176
3136	4	2170	2171	2177
3137	2	2171	2170	2173
3138	2	2171	2170	2174
3139	2	2171	2170	2175
3140	3	2171	2172	2178
3141	7	2172	2171	2176
3142	7	2172	2171	2177
3143	1	2173	2170	2174
3144	1	2173	2170	2175
3145	1	2174	2170	2175
3146	6	2176	2171	2177
3147	5	2179	2180	2181
3148	4	2179	2180	2185
3149	4	2179	2180	2186
3150	2	2180	2179	2182
3151	2	2180	2179	2183
3152	2	2180	2179	2184
3153	3	2180	2181	2187
3154	7	2181	2180	2185
3155	7	2181	2180	2186
3156	1	2182	2179	2183
3157	1	2182	2179	2184
3158	1	2183	2179	2184
3159	6	2185	2180	2186
3160	5	2188	2189	2190
3161	4	2188	2189	2194
3162	4	2188	2189	2195
3163	2	2189	2188	2191
3164	2	2189	2188	2192
3165	2	2189	2188	2193
3166	3	2189	2190	2196
3167	7	2190	2189	2194
3168	7	2190	2189	2195
3169	1	2191	2188	2192
3170	1	2191	2188	2193
3171	1	2192	2188	2193
3172	6	2194	2189	2195
3173	5	2197	2198	2199
3174	4	2197	2198	2203
3175	4	2197	2198	2204
3176	2	2198	2197	2200
3177	2	2198	2197	2201
3178	2	2198	2197	2202
3179	3	2198	2199	2205
3180	7	2199	2198	2203
3181	7	2199	2198	2204
3182	1	2200	2197	2201
3183	1	2200	2197	2202
3184	1	2201	2197	2202
3185	6	2203	2198	2204
3186	5	2206	2207	2208
3187	4	2206	2207	2212
3188	4	2206	2207	2213
3189	2	2207	2206	2209
3190	2	2207	2206	2210
3191	2	2207	2206	2211
3192	3	2207	2208	2214
3193	7	2208	2207	2212
3194	7	2208	2207	2213
3195	1	2209	2206	2210
3196	1	2209	2206	2211
3197	1	2210	2206	2211
3198	6	2212	2207	2213
3199	5	2215	2216	2217
3200	4	2215	2216	2221
3201	4	2215	2216	2222
3202	2	2216	2215	2218
3203	2	2216	2215	2219
3204	2	2216	2215	2220
3205	3	2216	2217	2223
3206	7	2217	2216	2221
3207	7	2217	2216	2222
3208	1	2218	2215	2219
3209	1	2218	2215	2220
3210	1	2219	2215	2220
3211	6	2221	2216	2222
3212	5	2224	2225	2226
3213	4	2224	2225	2230
3214	4	2224	2225	2231
3215	2	2225	2224	2227
3216	2	2225	2224	2228
3217	2	2225	2224	2229
3218	3	2225	2226	2232
3219	7	2226	2225	2230
3220	7	2226	2225	2231
3221	1	2227	2224	2228
3222	1	2227	2224	2229
3223	1	2228	2224	2229
3224	6	2230	2225	2231
3225	5	2233	2234	2235
3226	4	2233	2234	2239
3227	4	2233	2234	2240
3228	2	2234	2233	2236
3229	2	2234	2233	2237
3230	2	2234	2233	2238
3231	3	2234	2235	2241
3232	7	2235	2234	2239
3233	7	2235	2234	2240
3234	1	2236	2233	2237
3235	1	2236	2233	2238
3236	1	2237	2233	2238
3237	6	2239	2234	2240
3238	5	2242	2243	2244
3239	4	2242	2243	2248
3240	4	2242	2243	2249
3241	2	2243	2242	2245
3242	2	2243	2242	2246
3243	2	2243	2242	2247
3244	3	2243	2244	2250
3245	7	2244	2243	2248
3246	7	2244	2243	2249
3247	1	2245	2242	2246
3248	1	2245	2242	2247
3249	1	2246	2242	2247
3250	6	2248	2243	2249

Dihedrals

1	3	1	2	3	9
2	2	3	2	1	4
3	2	3	2	1	5
4	2	3	2	1	6
5	1	4	1	2	7
6	1	4	1	2	8
7	1	5	1	2	7
8	1	5	1	2	8
9	1	6	1	2	7
10	1	6	1	2	8
11	4	7	2	3	9
12	4	8	2	3	9
13	3	10	11	12	18
14	2	12	11	10	13
15	2	12	11	10	14
16	2	12	11	10	15
17	1	13	10	11	16
18	1	13	10	11	17
19	1	14	10	11	16
20	1	14	10	11	17
21	1	15	10	11	16
22	1	15	10	11	17
23	4	16	11	12	18
24	4	17	11	12	18
25	3	19	20	21	27
26	2	21	20	19	22
27	2	21	20	19	23
28	2	21	20	19	24
29	1	22	19	20	25
30	1	22	19	20	26
31	1	23	19	20	25
32	1	23	19	20	26
33	1	24	19	20	25
34	1	24	19	20	26
35	4	25	20	21	27
36	4	26	20	21	27
37	3	28	29	30	36
38	2	30	29	28	31
39	2	30	29	28	32
40	2	30	29	28	33
41	1	31	28	29	34
42	1	31	28	29	35
43	1	32	28	29	34
44	1	32	28	29	35
45	1	33	28	29	34
46	1	33	28	29	35
47	4	34	29	30	36
48	4	35	29	30	36
49	3	37	38	39	45
50	2	39	38	37	40
51	2	39	38	37	41
52	2	39	38	37	42
53	1	40	37	38	43
54	1	40	37	38	44
55	1	41	37	38	43
56	1	41	37	38	44
57	1	42	37	38	43
58	1	42	37	38	44
59	4	43	38	39	45
60	4	44	38	39	45
61	3	46	47	48	54
62	2	48	47	46	49
63	2	48	47	46	50
64	2	48	47	46	51
65	1	49	46	47	52
66	1	49	46	47	53
67	1	50	46	47	52
68	1	50	46	47	53
69	1	51	46	47	52
70	1	51	46	47	53
71	4	52	47	48	54
72	4	53	47	48	54
73	3	55	56	57	63
74	2	57	56	55	58
75	2	57	56	55	59
76	2	57	56	55	60
77	1	58	55	56	61
78	1	58	55	56	62
79	1	59	55	56	61
80	1	59	55	56	62
81	1	60	55	56	61
82	1	60	55	56	62
83	4	61	56	57	63
84	4	62	56	57	63
85	3	64	65	66	72
86	2	66	65	64	67
87	2	66	65	64	68
88	2	66	65	64	69
89	1	67	64	65	70
90	1	67	64	65	71
91	1	68	64	65	70
92	1	68	64	65	71
93	1	69	64	65	70
94	1	69	64	65	71
95	4	70	65	66	72
96	4	71	65	66	72
97	3	73	74	75	81
98	2	75	74	73	76
99	2	75	74	73	77
100	2	75	74	73	78
101	1	76	73	74	79
102	1	76	73	74	80
103	1	77	73	74	79
104	1	77	73	74	80
105	1	78	73	74	79
106	1	78	73	74	80
107	4	79	74	75	81
108	4	80	74	75	81
109	3	82	83	84	90
110	2	84	83	82	85
111	2	84	83	82	86
112	2	84	83	82	87
113	1	85	82	83	88
114	1	85	82	83	89
115	1	86	82	83	88
116	1	86	82	83	89
117	1	87	82	83	88
118	1	87	82	83	89
119	4	88	83	84	90
120	4	89	83	84	90
121	3	91	92	93	99
122	2	93	92	91	94
123	2	93	92	91	95
124	2	93	92	91	96
125	1	94	91	92	97
126	1	94	91	92	98
127	1	95	91	92	97
128	1	95	91	92	98
129	1	96	91	92	97
130	1	96	91	92	98
131	4	97	92	93	99
132	4	98	92	93	99
133	3	100	101	102	108
134	2	102	101	100	103
135	2	102	101	100	104
136	2	102	101	100	105
137	1	103	100	101	106
138	1	103	100	101	107
139	1	104	100	101	106
140	1	104	100	101	107
141	1	105	100	101	106
142	1	105	100	101	107
143	4	106	101	102	108
144	4	107	101	102	108
145	3	109	110	111	117
146	2	111	110	109	112
147	2	111	110	109	113
148	2	111	110	109	114
149	1	112	109	110	115
150	1	112	109	110	116
151	1	113	109	110	115
152	1	113	109	110	116
153	1	114	109	110	115
154	1	114	109	110	116
155	4	115	110	111	117
156	4	116	110	111	117
157	3	118	119	120	126
158	2	120	119	118	121
159	2	120	119	118	122
160	2	120	119	118	123
161	1	121	118	119	124
162	1	121	118	119	125
163	1	122	118	119	124
164	1	122	118	119	125
165	1	123	118	119	124
166	1	123	118	119	125
167	4	124	119	120	126
168	4	125	119	120	126
169	3	127	128	129	135
170	2	129	128	127	130
171	2	129	128	127	131
172	2	129	128	127	132
173	1	130	127	128	133
174	1	130	127	128	134
175	1	131	127	128	133
176	1	131	127	128	134
177	1	132	127	128	133
178	1	132	127	128	134
179	4	133	128	129	135
180	4	134	128	129	135
181	3	136	137	138	144
182	2	138	137	136	139
183	2	138	137	136	140
184	2	138	137	136	141
185	1	139	136	137	142
186	1	139	136	137	143
187	1	140	136	137	142
188	1	140	136	137	143
189	1	141	136	137	142
190	1	141	136	137	143
191	4	142	137	138	144
192	4	143	137	138	144
193	3	145	146	147	153
194	2	147	146	145	148
195	2	147	146	145	149
196	2	147	146	145	150
197	1	148	145	146	151
198	1	148	145	146	152
199	1	149	145	146	151
200	1	149	145	146	152
201	1	150	145	146	151
202	1	150	145	146	152
203	4	151	146	147	153
204	4	152	146	147	153
205	3	154	155	156	162
206	2	156	155	154	157
207	2	156	155	154	158
208	2	156	155	154	159
209	1	157	154	155	160
210	1	157	154	155	161
211	1	158	154	155	160
212	1	158	154	155	161
213	1	159	154	155	160
214	1	159	154	155	161
215	4	160	155	156	162
216	4	161	155	156	162
217	3	163	164	165	171
218	2	165	164	163	166
219	2	165	164	163	167
220	2	165	164	163	168
221	1	166	163	164	169
222	1	166	163	164	170
223	1	167	163	164	169
224	1	167	163	164	170
225	1	168	163	164	169
226	1	168	163	164	170
227	4	169	164	165	171
228	4	170	164	165	171
229	3	172	173	174	180
230	2	174	173	172	175
231	2	174	173	172	176
232	2	174	173	172	177
233	1	175	172	173	178
234	1	175	172	173	179
235	1	176	172	173	178
236	1	176	172	173	179
237	1	177	172	173	178
238	1	177	172	173	179
239	4	178	173	174	180
240	4	179	173	174	180
241	3	181	182	183	189
242	2	183	182	181	184
243	2	183	182	181	185
244	2	183	182	181	186
245	1	184	181	182	187
246	1	184	181	182	188
247	1	185	181	182	187
248	1	185	181	182	188
249	1	186	181	182	187
250	1	186	181	182	188
251	4	187	182	183	189
252	4	188	182	183	189
253	3	190	191	192	198
254	2	192	191	190	193
255	2	192	191	190	194
256	2	192	191	190	195
257	1	193	190	191	196
258	1	193	190	191	197
259	1	194	190	191	196
260	1	194	190	191	197
261	1	195	190	191	196
262	1	195	190	191	197
263	4	196	191	192	198
264	4	197	191	192	198
265	3	199	200	201	207
266	2	201	200	199	202
267	2	201	200	199	203
268	2	201	200	199	204
269	1	202	199	200	205
270	1	202	199	200	206
271	1	203	199	200	205
272	1	203	199	200	206
273	1	204	199	200	205
274	1	204	199	200	206
275	4	205	200	201	207
276	4	206	200	201	207
277	3	208	209	210	216
278	2	210	209	208	211
279	2	210	209	208	212
280	2	210	209	208	213
281	1	211	208	209	214
282	1	211	208	209	215
283	1	212	208	209	214
284	1	212	208	209	215
285	1	213	208	209	214
286	1	213	208	209	215
287	4	214	209	210	216
288	4	215	209	210	216
289	3	217	218	219	225
290	2	219	218	217	220
291	2	219	218	217	221
292	2	219	218	217	222
293	1	220	217	218	223
294	1	220	217	218	224
295	1	221	217	218	223
296	1	221	217	218	224
297	1	222	217	218	223
298	1	222	217	218	224
299	4	223	218	219	225
300	4	224	218	219	225
301	3	226	227	228	234
302	2	228	227	226	229
303	2	228	227	226	230
304	2	228	227	226	231
305	1	229	226	227	232
306	1	229	226	227	233
307	1	230	226	227	232
308	1	230	226	227	233
309	1	231	226	227	232
310	1	231	226	227	233
311	4	232	227	228	234
312	4	233	227	228	234
313	3	235	236	237	243
314	2	237	236	235	238
315	2	237	236	235	239
316	2	237	236	235	240
317	1	238	235	236	241
318	1	238	235	236	242
319	1	239	235	236	241
320	1	239	235	236	242
321	1	240	235	236	241
322	1	240	235	236	242
323	4	241	236	237	243
324	4	242	236	237	243
325	3	244	245	246	252
326	2	246	245	244	247
327	2	246	245	244	248
328	2	246	245	244	249
329	1	247	244	245	250
330	1	247	244	245	251
331	1	248	244	245	250
332	1	248	244	245	251
333	1	249	244	245	250
334	1	249	244	245	251
335	4	250	245	246	252
336	4	251	245	246	252
337	3	253	254	255	261
338	2	255	254	253	256
339	2	255	254	253	257
340	2	255	254	253	258
341	1	256	253	254	259
342	1	256	253	254	260
343	1	257	253	254	259
344	1	257	253	254	260
345	1	258	253	254	259
346	1	258	253	254	260
347	4	259	254	255	261
348	4	260	254	255	261
349	3	262	263	264	270
350	2	264	263	262	265
351	2	264	263	262	266
352	2	264	263	262	267
353	1	265	262	263	268
354	1	265	262	263	269
355	1	266	262	263	268
356	1	266	262	263	269
357	1	267	262	263	268
358	1	267	262	263	269
359	4	268	263	264	270
360	4	269	263	264	270
361	3	271	272	273	279
362	2	273	272	271	274
363	2	273	272	271	275
364	2	273	272	271	276
365	1	274	271	272	277
366	1	274	271	272	278
367	1	275	271	272	277
368	1	275	271	272	278
369	1	276	271	272	277
370	1	276	271	272	278
371	4	277	272	273	279
372	4	278	272	273	279
373	3	280	281	282	288
374	2	282	281	280	283
375	2	282	281	280	284
376	2	282	281	280	285
377	1	283	280	281	286
378	1	283	280	281	287
379	1	284	280	281	286
380	1	284	280	281	287
381	1	285	280	281	286
382	1	285	280	281	287
383	4	286	281	282	288
384	4	287	281	282	288
385	3	289	290	291	297
386	2	291	290	289	292
387	2	291	290	289	293
388	2	291	290	289	294
389	1	292	289	290	295
390	1	292	289	290	296
391	1	293	289	290	295
392	1	293	289	290	296
393	1	294	289	290	295
394	1	294	289	290	296
395	4	295	290	291	297
396	4	296	290	291	297
397	3	298	299	300	306
398	2	300	299	298	301
399	2	300	299	298	302
400	2	300	299	298	303
401	1	301	298	299	304
402	1	301	298	299	305
403	1	302	298	299	304
404	1	302	298	299	305
405	1	303	298	299	304
406	1	303	298	299	305
407	4	304	299	300	306
408	4	305	299	300	306
409	3	307	308	309	315
410	2	309	308	307	310
411	2	309	308	307	311
412	2	309	308	307	312
413	1	310	307	308	313
414	1	310	307	308	314
415	1	311	307	308	313
416	1	311	307	308	314
417	1	312	307	308	313
418	1	312	307	308	314
419	4	313	308	309	315
420	4	314	308	309	315
421	3	316	317	318	324
422	2	318	317	316	319
423	2	318	317	316	320
424	2	318	317	316	321
425	1	319	316	317	322
426	1	319	316	317	323
427	1	320	316	317	322
428	1	320	316	317	323
429	1	321	316	317	322
430	1	321	316	317	323
431	4	322	317	318	324
432	4	323	317	318	324
433	3	325	326	327	333
434	2	327	326	325	328
435	2	327	326	325	329
436	2	327	326	325	330
437	1	328	325	326	331
438	1	328	325	326	332
439	1	329	325	326	331
440	1	329	325	326	332
441	1	330	325	326	331
442	1	330	325	326	332
443	4	331	326	327	333
444	4	332	326	327	333
445	3	334	335	336	342
446	2	336	335	334	337
447	2	336	335	334	338
448	2	336	335	334	339
449	1	337	334	335	340
450	1	337	334	335	341
451	1	338	334	335	340
452	1	338	334	335	341
453	1	339	334	335	340
454	1	339	334	335	341
455	4	340	335	336	342
456	4	341	335	336	342
457	3	343	344	345	351
458	2	345	344	343	346
459	2	345	344	343	347
460	2	345	344	343	348
461	1	346	343	344	349
462	1	346	343	344	350
463	1	347	343	344	349
464	1	347	343	344	350
465	1	348	343	344	349
466	1	348	343	344	350
467	4	349	344	345	351
468	4	350	344	345	351
469	3	352	353	354	360
470	2	354	353	352	355
471	2	354	353	352	356
472	2	354	353	352	357
473	1	355	352	353	358
474	1	355	352	353	359
475	1	356	352	353	358
476	1	356	352	353	359
477	1	357	352	353	358
478	1	357	352	353	359
479	4	358	353	354	360
480	4	359	353	354	360
481	3	361	362	363	369
482	2	363	362	361	364
483	2	363	362	361	365
484	2	363	362	361	366
485	1	364	361	362	367
486	1	364	361	362	368
487	1	365	361	362	367
488	1	365	361	362	368
489	1	366	361	362	367
490	1	366	361	362	368
491	4	367	362	363	369
492	4	368	362	363	369
493	3	370	371	372	378
494	2	372	371	370	373
495	2	372	371	370	374
496	2	372	371	370	375
497	1	373	370	371	376
498	1	373	370	371	377
499	1	374	370	371	376
500	1	374	370	371	377
501	1	375	370	371	376
502	1	375	370	371	377
503	4	376	371	372	378
504	4	377	371	372	378
505	3	379	380	381	387
506	2	381	380	379	382
507	2	381	380	379	383
508	2	381	380	379	384
509	1	382	379	380	385
510	1	382	379	380	386
511	1	383	379	380	385
512	1	383	379	380	386
513	1	384	379	380	385
514	1	384	379	380	386
515	4	385	380	381	387
516	4	386	380	381	387
517	3	388	389	390	396
518	2	390	389	388	391
519	2	390	389	388	392
520	2	390	389	388	393
521	1	391	388	389	394
522	1	391	388	389	395
523	1	392	388	389	394
524	1	392	388	389	395
525	1	393	388	389	394
526	1	393	388	389	395
527	4	394	389	390	396
528	4	395	389	390	396
529	3	397	398	399	405
530	2	399	398	397	400
531	2	399	398	397	401
532	2	399	398	397	402
533	1	400	397	398	403
534	1	400	397	398	404
535	1	401	397	398	403
536	1	401	397	398	404
537	1	402	397	398	403
538	1	402	397	398	404
539	4	403	398	399	405
540	4	404	398	399	405
541	3	406	407	408	414
542	2	408	407	406	409
543	2	408	407	406	410
544	2	408	407	406	411
545	1	409	406	407	412
546	1	409	406	407	413
547	1	410	406	407	412
548	1	410	406	407	413
549	1	411	406	407	412
550	1	411	406	407	413
551	4	412	407	408	414
552	4	413	407	408	414
553	3	415	416	417	423
554	2	417	416	415	418
555	2	417	416	415	419
556	2	417	416	415	420
557	1	418	415	416	421
558	1	418	415	416	422
559	1	419	415	416	421
560	1	419	415	416	422
561	1	420	415	416	421
562	1	420	415	416	422
563	4	421	416	417	423
564	4	422	416	417	423
565	3	424	425	426	432
566	2	426	425	424	427
567	2	426	425	424	428
568	2	426	425	424	429
569	1	427	424	425	430
570	1	427	424	425	431
571	1	428	424	425	430
572	1	428	424	425	431
573	1	429	424	425	430
574	1	429	424	425	431
575	4	430	425	426	432
576	4	431	425	426	432
577	3	433	434	435	441
578	2	435	434	433	436
579	2	435	434	433	437
580	2	435	434	433	438
581	1	436	433	434	439
582	1	436	433	434	440
583	1	437	433	434	439
584	1	437	433	434	440
585	1	438	433	434	439
586	1	438	433	434	440
587	4	439	434	435	441
588	4	440	434	435	441
589	3	442	443	444	450
590	2	444	443	442	445
591	2	444	443	442	446
592	2	444	443	442	447
593	1	445	442	443	448
594	1	445	442	443	449
595	1	446	442	443	448
596	1	446	442	443	449
597	1	447	442	443	448
598	1	447	442	443	449
599	4	448	443	444	450
600	4	449	443	444	450
601	3	451	452	453	459
602	2	453	452	451	454
603	2	453	452	451	455
604	2	453	452	451	456
605	1	454	451	452	457
606	1	454	451	452	458
607	1	455	451	452	457
608	1	455	451	452	458
609	1	456	451	452	457
610	1	456	451	452	458
611	4	457	452	453	459
612	4	458	452	453	459
613	3	460	461	462	468
614	2	462	461	460	463
615	2	462	461	460	464
616	2	462	461	460	465
617	1	463	460	461	466
618	1	463	460	461	467
619	1	464	460	461	466
620	1	464	460	461	467
621	1	465	460	461	466
622	1	465	460	461	467
623	4	466	461	462	468
624	4	467	461	462	468
625	3	469	470	471	477
626	2	471	470	469	472
627	2	471	470	469	473
628	2	471	470	469	474
629	1	472	469	470	475
630	1	472	469	470	476
631	1	473	469	470	475
632	1	473	469	470	476
633	1	474	469	470	475
634	1	474	469	470	476
635	4	475	470	471	477
636	4	476	470	471	477
637	3	478	479	480	486
638	2	480	479	478	481
639	2	480	479	478	482
640	2	480	479	478	483
641	1	481	478	479	484
642	1	481	478	479	485
643	1	482	478	479	484
644	1	482	478	479	485
645	1	483	478	479	484
646	1	483	478	479	485
647	4	484	479	480	486
648	4	485	479	480	486
649	3	487	488	489	495
650	2	489	488	487	490
651	2	489	488	487	491
652	2	489	488	487	492
653	1	490	487	488	493
654	1	490	487	488	494
655	1	491	487	488	493
656	1	491	487	488	494
657	1	492	487	488	493
658	1	492	487	488	494
659	4	493	488	489	495
660	4	494	488	489	495
661	3	496	497	498	504
662	2	498	497	496	499
663	2	498	497	496	500
664	2	498	497	496	501
665	1	499	496	497	502
666	1	499	496	497	503
667	1	500	496	497	502
668	1	500	496	497	503
669	1	501	496	497	502
670	1	501	496	497	503
671	4	502	497	498	504
672	4	503	497	498	504
673	3	505	506	507	513
674	2	507	506	505	508
675	2	507	506	505	509
676	2	507	506	505	510
677	1	508	505	506	511
678	1	508	505	506	512
679	1	509	505	506	511
680	1	509	505	506	512
681	1	510	505	506	511
682	1	510	505	506	512
683	4	511	506	507	513
684	4	512	506	507	513
685	3	514	515	516	522
686	2	516	515	514	517
687	2	516	515	514	518
688	2	516	515	514	519
689	1	517	514	515	520
690	1	517	514	515	521
691	1	518	514	515	520
692	1	518	514	515	521
693	1	519	514	515	520
694	1	519	514	515	521
695	4	520	515	516	522
696	4	521	515	516	522
697	3	523	524	525	531
698	2	525	524	523	526
699	2	525	524	523	527
700	2	525	524	523	528
701	1	526	523	524	529
702	1	526	523	524	530
703	1	527	523	524	529
704	1	527	523	524	530
705	1	528	523	524	529
706	1	528	523	524	530
707	4	529	524	525	531
708	4	530	524	525	531
709	3	532	533	534	540
710	2	534	533	532	535
711	2	534	533	532	536
712	2	534	533	532	537
713	1	535	532	533	538
714	1	535	532	533	539
715	1	536	532	533	538
716	1	536	532	533	539
717	1	537	532	533	538
718	1	537	532	533	539
719	4	538	533	534	540
720	4	539	533	534	540
721	3	541	542	543	549
722	2	543	542	541	544
723	2	543	542	541	545
724	2	543	542	541	546
725	1	544	541	542	547
726	1	544	541	542	548
727	1	545	541	542	547
728	1	545	541	542	548
729	1	546	541	542	547
730	1	546	541	542	548
731	4	547	542	543	549
732	4	548	542	543	549
733	3	550	551	552	558
734	2	552	551	550	553
735	2	552	551	550	554
736	2	552	551	550	555
737	1	553	550	551	556
738	1	553	550	551	557
739	1	554	550	551	556
740	1	554	550	551	557
741	1	555	550	551	556
742	1	555	550	551	557
743	4	556	551	552	558
744	4	557	551	552	558
745	3	559	560	561	567
746	2	561	560	559	562
747	2	561	560	559	563
748	2	561	560	559	564
749	1	562	559	560	565
750	1	562	559	560	566
751	1	563	559	560	565
752	1	563	559	560	566
753	1	564	559	560	565
754	1	564	559	560	566
755	4	565	560	561	567
756	4	566	560	561	567
757	3	568	569	570	576
758	2	570	569	568	571
759	2	570	569	568	572
760	2	570	569	568	573
761	1	571	568	569	574
762	1	571	568	569	575
763	1	572	568	569	574
764	1	572	568	569	575
765	1	573	568	569	574
766	1	573	568	569	575
767	4	574	569	570	576
768	4	575	569	570	576
769	3	577	578	579	585
770	2	579	578	577	580
771	2	579	578	577	581
772	2	579	578	577	582
773	1	580	577	578	583
774	1	580	577	578	584
775	1	581	577	578	583
776	1	581	577	578	584
777	1	582	577	578	583
778	1	582	577	578	584
779	4	583	578	579	585
780	4	584	578	579	585
781	3	586	587	588	594
782	2	588	587	586	589
783	2	588	587	586	590
784	2	588	587	586	591
785	1	589	586	587	592
786	1	589	586	587	593
787	1	590	586	587	592
788	1	590	586	587	593
789	1	591	586	587	592
790	1	591	586	587	593
791	4	592	587	588	594
792	4	593	587	588	594
793	3	595	596	597	603
794	2	597	596	595	598
795	2	597	596	595	599
796	2	597	596	595	600
797	1	598	595	596	601
798	1	598	595	596	602
799	1	599	595	596	601
800	1	599	595	596	602
801	1	600	595	596	601
802	1	600	595	596	602
803	4	601	596	597	603
804	4	602	596	597	603
805	3	604	605	606	612
806	2	606	605	604	607
807	2	606	605	604	608
808	2	606	605	604	609
809	1	607	604	605	610
810	1	607	604	605	611
811	1	608	604	605	610
812	1	608	604	605	611
813	1	609	604	605	610
814	1	609	604	605	611
815	4	610	605	606	612
816	4	611	605	606	612
817	3	613	614	615	621
818	2	615	614	613	616
819	2	615	614	613	617
820	2	615	614	613	618
821	1	616	613	614	619
822	1	616	613	614	620
823	1	617	613	614	619
824	1	617	613	614	620
825	1	618	613	614	619
826	1	618	613	614	620
827	4	619	614	615	621
828	4	620	614	615	621
829	3	622	623	624	630
830	2	624	623	622	625
831	2	624	623	622	626
832	2	624	623	622	627
833	1	625	622	623	628
834	1	625	622	623	629
835	1	626	622	623	628
836	1	626	622	623	629
837	1	627	622	623	628
838	1	627	622	623	629
839	4	628	623	624	630
840	4	629	623	624	630
841	3	631	632	633	639
842	2	633	632	631	634
843	2	633	632	631	635
844	2	633	632	631	636
845	1	634	631	632	637
846	1	634	631	632	638
847	1	635	631	632	637
848	1	635	631	632	638
849	1	636	631	632	637
850	1	636	631	632	638
851	4	637	632	633	639
852	4	638	632	633	639
853	3	640	641	642	648
854	2	642	641	640	643
855	2	642	641	640	644
856	2	642	641	640	645
857	1	643	640	641	646
858	1	643	640	641	647
859	1	644	640	641	646
860	1	644	640	641	647
861	1	645	640	641	646
862	1	645	640	641	647
863	4	646	641	642	648
864	4	647	641	642	648
865	3	649	650	651	657
866	2	651	650	649	652
867	2	651	650	649	653
868	2	651	650	649	654
869	1	652	649	650	655
870	1	652	649	650	656
871	1	653	649	650	655
872	1	653	649	650	656
873	1	654	649	650	655
874	1	654	649	650	656
875	4	655	650	651	657
876	4	656	650	651	657
877	3	658	659	660	666
878	2	660	659	658	661
879	2	660	659	658	662
880	2	660	659	658	663
881	1	661	658	659	664
882	1	661	658	659	665
883	1	662	658	659	664
884	1	662	658	659	665
885	1	663	658	659	664
886	1	663	658	659	665
887	4	664	659	660	666
888	4	665	659	660	666
889	3	667	668	669	675
890	2	669	668	667	670
891	2	669	668	667	671
892	2	669	668	667	672
893	1	670	667	668	673
894	1	670	667	668	674
895	1	671	667	668	673
896	1	671	667	668	674
897	1	672	667	668	673
898	1	672	667	668	674
899	4	673	668	669	675
900	4	674	668	669	675
901	3	676	677	678	684
902	2	678	677	676	679
903	2	678	677	676	680
904	2	678	677	676	681
905	1	679	676	677	682
906	1	679	676	677	683
907	1	680	676	677	682
908	1	680	676	677	683
909	1	681	676	677	682
910	1	681	676	677	683
911	4	682	677	678	684
912	4	683	677	678	684
913	3	685	686	687	693
914	2	687	686	685	688
915	2	687	686	685	689
916	2	687	686	685	690
917	1	688	685	686	691
918	1	688	685	686	692
919	1	689	685	686	691
920	1	689	685	686	692
921	1	690	685	686	691
922	1	690	685	686	692
923	4	691	686	687	693
924	4	692	686	687	693
925	3	694	695	696	702
926	2	696	695	694	697
927	2	696	695	694	698
928	2	696	695	694	699
929	1	697	694	695	700
930	1	697	694	695	701
931	1	698	694	695	700
932	1	698	694	695	701
933	1	699	694	695	700
934	1	699	694	695	701
935	4	700	695	696	702
936	4	701	695	696	702
937	3	703	704	705	711
938	2	705	704	703	706
939	2	705	704	703	707
940	2	705	704	703	708
941	1	706	703	704	709
942	1	706	703	704	710
943	1	707	703	704	709
944	1	707	703	704	710
945	1	708	703	704	709
946	1	708	703	704	710
947	4	709	704	705	711
948	4	710	704	705	711
949	3	712	713	714	720
950	2	714	713	712	715
951	2	714	713	712	716
952	2	714	713	712	717
953	1	715	712	713	718
954	1	715	712	713	719
955	1	716	712	713	718
956	1	716	712	713	719
957	1	717	712	713	718
958	1	717	712	713	719
959	4	718	713	714	720
960	4	719	713	714	720
961	3	721	722	723	729
962	2	723	722	721	724
963	2	723	722	721	725
964	2	723	722	721	726
965	1	724	721	722	727
966	1	724	721	722	728
967	1	725	721	722	727
968	1	725	721	722	728
969	1	726	721	722	727
970	1	726	721	722	728
971	4	727	722	723	729
972	4	728	722	723	729
973	3	730	731	732	738
974	2	732	731	730	733
975	2	732	731	730	734
976	2	732	731	730	735
977	1	733	730	731	736
978	1	733	730	731	737
979	1	734	730	731	736
980	1	734	730	731	737
981	1	735	730	731	736
982	1	735	730	731	737
983	4	736	731	732	738
984	4	737	731	732	738
985	3	739	740	741	747
986	2	741	740	739	742
987	2	741	740	739	743
988	2	741	740	739	744
989	1	742	739	740	745
990	1	742	739	740	746
991	1	743	739	740	745
992	1	743	739	740	746
993	1	744	739	740	745
994	1	744	739	740	746
995	4	745	740	741	747
996	4	746	740	741	747
997	3	748	749	750	756
998	2	750	749	748	751
999	2	750	749	748	752
1000	2	750	749	748	753
1001	1	751	748	749	754
1002	1	751	748	749	755
1003	1	752	748	749	754
1004	1	752	748	749	755
1005	1	753	748	749	754
1006	1	753	748	749	755
1007	4	754	749	750	756
1008	4	755	749	750	756
1009	3	757	758	759	765
1010	2	759	758	757	760
1011	2	759	758	757	761
1012	2	759	758	757	762
1013	1	760	757	758	763
1014	1	760	757	758	764
1015	1	761	757	758	763
1016	1	761	757	758	764
1017	1	762	757	758	763
1018	1	762	757	758	764
1019	4	763	758	759	765
1020	4	764	758	759	765
1021	3	766	767	768	774
1022	2	768	767	766	769
1023	2	768	767	766	770
1024	2	768	767	766	771
1025	1	769	766	767	772
1026	1	769	766	767	773
1027	1	770	766	767	772
1028	1	770	766	767	773
1029	1	771	766	767	772
1030	1	771	766	767	773
1031	4	772	767	768	774
1032	4	773	767	768	774
1033	3	775	776	777	783
1034	2	777	776	775	778
1035	2	777	776	775	779
1036	2	777	776	775	780
1037	1	778	775	776	781
1038	1	778	775	776	782
1039	1	779	775	776	781
1040	1	779	775	776	782
1041	1	780	775	776	781
1042	1	780	775	776	782
1043	4	781	776	777	783
1044	4	782	776	777	783
1045	3	784	785	786	792
1046	2	786	785	784	787
1047	2	786	785	784	788
1048	2	786	785	784	789
1049	1	787	784	785	790
1050	1	787	784	785	791
1051	1	788	784	785	790
1052	1	788	784	785	791
1053	1	789	784	785	790
1054	1	789	784	785	791
1055	4	790	785	786	792
1056	4	791	785	786	792
1057	3	793	794	795	801
1058	2	795	794	793	796
1059	2	795	794	793	797
1060	2	795	794	793	798
1061	1	796	793	794	799
1062	1	796	793	794	800
1063	1	797	793	794	799
1064	1	797	793	794	800
1065	1	798	793	794	799
1066	1	798	793	794	800
1067	4	799	794	795	801
1068	4	800	794	795	801
1069	3	802	803	804	810
1070	2	804	803	802	805
1071	2	804	803	802	806
1072	2	804	803	802	807
1073	1	805	802	803	808
1074	1	805	802	803	809
1075	1	806	802	803	808
1076	1	806	802	803	809
1077	1	807	802	803	808
1078	1	807	802	803	809
1079	4	808	803	804	810
1080	4	809	803	804	810
1081	3	811	812	813	819
1082	2	813	812	811	814
1083	2	813	812	811	815
1084	2	813	812	811	816
1085	1	814	811	812	817
1086	1	814	811	812	818
1087	1	815	811	812	817
1088	1	815	811	812	818
1089	1	816	811	812	817
1090	1	816	811	812	818
1091	4	817	812	813	819
1092	4	818	812	813	819
1093	3	820	821	822	828
1094	2	822	821	820	823
1095	2	822	821	820	824
1096	2	822	821	820	825
1097	1	823	820	821	826
1098	1	823	820	821	827
1099	1	824	820	821	826
1100	1	824	820	821	827
1101	1	825	820	821	826
1102	1	825	820	821	827
1103	4	826	821	822	828
1104	4	827	821	822	828
1105	3	829	830	831	837
1106	2	831	830	829	832
1107	2	831	830	829	833
1108	2	831	830	829	834
1109	1	832	829	830	835
1110	1	832	829	830	836
1111	1	833	829	830	835
1112	1	833	829	830	836
1113	1	834	829	830	835
1114	1	834	829	830	836
1115	4	835	830	831	837
1116	4	836	830	831	837
1117	3	838	839	840	846
1118	2	840	839	838	841
1119	2	840	839	838	842
1120	2	840	839	838	843
1121	1	841	838	839	844
1122	1	841	838	839	845
1123	1	842	838	839	844
1124	1	842	838	839	845
1125	1	843	838	839	844
1126	1	843	838	839	845
1127	4	844	839	840	846
1128	4	845	839	840	846
1129	3	847	848	849	855
1130	2	849	848	847	850
1131	2	849	848	847	851
1132	2	849	848	847	852
1133	1	850	847	848	853
1134	1	850	847	848	854
1135	1	851	847	848	853
1136	1	851	847	848	854
1137	1	852	847	848	853
1138	1	852	847	848	854
1139	4	853	848	849	855
1140	4	854	848	849	855
1141	3	856	857	858	864
1142	2	858	857	856	859
1143	2	858	857	856	860
1144	2	858	857	856	861
1145	1	859	856	857	862
1146	1	859	856	857	863
1147	1	860	856	857	862
1148	1	860	856	857	863
1149	1	861	856	857	862
1150	1	861	856	857	863
1151	4	862	857	858	864
1152	4	863	857	858	864
1153	3	865	866	867	873
1154	2	867	866	865	868
1155	2	867	866	865	869
1156	2	867	866	865	870
1157	1	868	865	866	871
1158	1	868	865	866	872
1159	1	869	865	866	871
1160	1	869	865	866	872
1161	1	870	865	866	871
1162	1	870	865	866	872
1163	4	871	866	867	873
1164	4	872	866	867	873
1165	3	874	875	876	882
1166	2	876	875	874	877
1167	2	876	875	874	878
1168	2	876	875	874	879
1169	1	877	874	875	880
1170	1	877	874	875	881
1171	1	878	874	875	880
1172	1	878	874	875	881
1173	1	879	874	875	880
1174	1	879	874	875	881
1175	4	880	875	876	882
1176	4	881	875	876	882
1177	3	883	884	885	891
1178	2	885	884	883	886
1179	2	885	884	883	887
1180	2	885	884	883	888
1181	1	886	883	884	889
1182	1	886	883	884	890
1183	1	887	883	884	889
1184	1	887	883	884	890
1185	1	888	883	884	889
1186	1	888	883	884	890
1187	4	889	884	885	891
1188	4	890	884	885	891
1189	3	892	893	894	900
1190	2	894	893	892	895
1191	2	894	893	892	896
1192	2	894	893	892	897
1193	1	895	892	893	898
1194	1	895	892	893	899
1195	1	896	892	893	898
1196	1	896	892	893	899
1197	1	897	892	893	898
1198	1	897	892	893	899
1199	4	898	893	894	900
1200	4	899	893	894	900
1201	3	901	902	903	909
1202	2	903	902	901	904
1203	2	903	902	901	905
1204	2	903	902	901	906
1205	1	904	901	902	907
1206	1	904	901	902	908
1207	1	905	901	902	907
1208	1	905	901	902	908
1209	1	906	901	902	907
1210	1	906	901	902	908
1211	4	907	902	903	909
1212	4	908	902	903	909
1213	3	910	911	912	918
1214	2	912	911	910	913
1215	2	912	911	910	914
1216	2	912	911	910	915
1217	1	913	910	911	916
1218	1	913	910	911	917
1219	1	914	910	911	916
1220	1	914	910	911	917
1221	1	915	910	911	916
1222	1	915	910	911	917
1223	4	916	911	912	918
1224	4	917	911	912	918
1225	3	919	920	921	927
1226	2	921	920	919	922
1227	2	921	920	919	923
1228	2	921	920	919	924
1229	1	922	919	920	925
1230	1	922	919	920	926
1231	1	923	919	920	925
1232	1	923	919	920	926
1233	1	924	919	920	925
1234	1	924	919	920	926
1235	4	925	920	921	927
1236	4	926	920	921	927
1237	3	928	929	930	936
1238	2	930	929	928	931
1239	2	930	929	928	932
1240	2	930	929	928	933
1241	1	931	928	929	934
1242	1	931	928	929	935
1243	1	932	928	929	934
1244	1	932	928	929	935
1245	1	933	928	929	934
1246	1	933	928	929	935
1247	4	934	929	930	936
1248	4	935	929	930	936
1249	3	937	938	939	945
1250	2	939	938	937	940
1251	2	939	938	937	941
1252	2	939	938	937	942
1253	1	940	937	938	943
1254	1	940	937	938	944
1255	1	941	937	938	943
1256	1	941	937	938	944
1257	1	942	937	938	943
1258	1	942	937	938	944
1259	4	943	938	939	945
1260	4	944	938	939	945
1261	3	946	947	948	954
1262	2	948	947	946	949
1263	2	948	947	946	950
1264	2	948	947	946	951
1265	1	949	946	947	952
1266	1	949	946	947	953
1267	1	950	946	947	952
1268	1	950	946	947	953
1269	1	951	946	947	952
1270	1	951	946	947	953
1271	4	952	947	948	954
1272	4	953	947	948	954
1273	3	955	956	957	963
1274	2	957	956	955	958
1275	2	957	956	955	959
1276	2	957	956	955	960
1277	1	958	955	956	961
1278	1	958	955	956	962
1279	1	959	955	956	961
1280	1	959	955	956	962
1281	1	960	955	956	961
1282	1	960	955	956	962
1283	4	961	956	957	963
1284	4	962	956	957	963
1285	3	964	965	966	972
1286	2	966	965	964	967
1287	2	966	965	964	968
1288	2	966	965	964	969
1289	1	967	964	965	970
1290	1	967	964	965	971
1291	1	968	964	965	970
1292	1	968	964	965	971
1293	1	969	964	965	970
1294	1	969	964	965	971
1295	4	970	965	966	972
1296	4	971	965	966	972
1297	3	973	974	975	981
1298	2	975	974	973	976
1299	2	975	974	973	977
1300	2	975	974	973	978
1301	1	976	973	974	979
1302	1	976	973	974	980
1303	1	977	973	974	979
1304	1	977	973	974	980
1305	1	978	973	974	979
1306	1	978	973	974	980
1307	4	979	974	975	981
1308	4	980	974	975	981
1309	3	982	983	984	990
1310	2	984	983	982	985
1311	2	984	983	982	986
1312	2	984	983	982	987
1313	1	985	982	983	988
1314	1	985	982	983	989
1315	1	986	982	983	988
1316	1	986	982	983	989
1317	1	987	982	983	988
1318	1	987	982	983	989
1319	4	988	983	984	990
1320	4	989	983	984	990
1321	3	991	992	993	999
1322	2	993	992	991	994
1323	2	993	992	991	995
1324	2	993	992	991	996
1325	1	994	991	992	997
1326	1	994	991	992	998
1327	1	995	991	992	997
1328	1	995	991	992	998
1329	1	996	991	992	997
1330	1	996	991	992	998
1331	4	997	992	993	999
1332	4	998	992	993	999
1333	3	1000	1001	1002	1008
1334	2	1002	1001	1000	1003
1335	2	1002	1001	1000	1004
1336	2	1002	1001	1000	1005
1337	1	1003	1000	1001	1006
1338	1	1003	1000	1001	1007
1339	1	1004	1000	1001	1006
1340	1	1004	1000	1001	1007
1341	1	1005	1000	1001	1006
1342	1	1005	1000	1001	1007
1343	4	1006	1001	1002	1008
1344	4	1007	1001	1002	1008
1345	3	1009	1010	1011	1017
1346	2	1011	1010	1009	1012
1347	2	1011	1010	1009	1013
1348	2	1011	1010	1009	1014
1349	1	1012	1009	1010	1015
1350	1	1012	1009	1010	1016
1351	1	1013	1009	1010	1015
1352	1	1013	1009	1010	1016
1353	1	1014	1009	1010	1015
1354	1	1014	1009	1010	1016
1355	4	1015	1010	1011	1017
1356	4	1016	1010	1011	1017
1357	3	1018	1019	1020	1026
1358	2	1020	1019	1018	1021
1359	2	1020	1019	1018	1022
1360	2	1020	1019	1018	1023
1361	1	1021	1018	1019	1024
1362	1	1021	1018	1019	1025
1363	1	1022	1018	1019	1024
1364	1	1022	1018	1019	1025
1365	1	1023	1018	1019	1024
1366	1	1023	1018	1019	1025
1367	4	1024	1019	1020	1026
1368	4	1025	1019	1020	1026
1369	3	1027	1028	1029	1035
1370	2	1029	1028	1027	1030
1371	2	1029	1028	1027	1031
1372	2	1029	1028	1027	1032
1373	1	1030	1027	1028	1033
1374	1	1030	1027	1028	1034
1375	1	1031	1027	1028	1033
1376	1	1031	1027	1028	1034
1377	1	1032	1027	1028	1033
1378	1	1032	1027	1028	1034
1379	4	1033	1028	1029	1035
1380	4	1034	1028	1029	1035
1381	3	1036	1037	1038	1044
1382	2	1038	1037	1036	1039
1383	2	1038	1037	1036	1040
1384	2	1038	1037	1036	1041
1385	1	1039	1036	1037	1042
1386	1	1039	1036	1037	1043
1387	1	1040	1036	1037	1042
1388	1	1040	1036	1037	1043
1389	1	1041	1036	1037	1042
1390	1	1041	1036	1037	1043
1391	4	1042	1037	1038	1044
1392	4	1043	1037	1038	1044
1393	3	1045	1046	1047	1053
1394	2	1047	1046	1045	1048
1395	2	1047	1046	1045	1049
1396	2	1047	1046	1045	1050
1397	1	1048	1045	1046	1051
1398	1	1048	1045	1046	1052
1399	1	1049	1045	1046	1051
1400	1	1049	1045	1046	1052
1401	1	1050	1045	1046	1051
1402	1	1050	1045	1046	1052
1403	4	1051	1046	1047	1053
1404	4	1052	1046	1047	1053
1405	3	1054	1055	1056	1062
1406	2	1056	1055	1054	1057
1407	2	1056	1055	1054	1058
1408	2	1056	1055	1054	1059
1409	1	1057	1054	1055	1060
1410	1	1057	1054	1055	1061
1411	1	1058	1054	1055	1060
1412	1	1058	1054	1055	1061
1413	1	1059	1054	1055	1060
1414	1	1059	1054	1055	1061
1415	4	1060	1055	1056	1062
1416	4	1061	1055	1056	1062
1417	3	1063	1064	1065	1071
1418	2	1065	1064	1063	1066
1419	2	1065	1064	1063	1067
1420	2	1065	1064	1063	1068
1421	1	1066	1063	1064	1069
1422	1	1066	1063	1064	1070
1423	1	1067	1063	1064	1069
1424	1	1067	1063	1064	1070
1425	1	1068	1063	1064	1069
1426	1	1068	1063	1064	1070
1427	4	1069	1064	1065	1071
1428	4	1070	1064	1065	1071
1429	3	1072	1073	1074	1080
1430	2	1074	1073	1072	1075
1431	2	1074	1073	1072	1076
1432	2	1074	1073	1072	1077
1433	1	1075	1072	1073	1078
1434	1	1075	1072	1073	1079
1435	1	1076	1072	1073	1078
1436	1	1076	1072	1073	1079
1437	1	1077	1072	1073	1078
1438	1	1077	1072	1073	1079
1439	4	1078	1073	1074	1080
1440	4	1079	1073	1074	1080
1441	3	1081	1082	1083	1089
1442	2	1083	1082	1081	1084
1443	2	1083	1082	1081	1085
1444	2	1083	1082	1081	1086
1445	1	1084	1081	1082	1087
1446	1	1084	1081	1082	1088
1447	1	1085	1081	1082	1087
1448	1	1085	1081	1082	1088
1449	1	1086	1081	1082	1087
1450	1	1086	1081	1082	1088
1451	4	1087	1082	1083	1089
1452	4	1088	1082	1083	1089
1453	3	1090	1091	1092	1098
1454	2	1092	1091	1090	1093
1455	2	1092	1091	1090	1094
1456	2	1092	1091	1090	1095
1457	1	1093	1090	1091	1096
1458	1	1093	1090	1091	1097
1459	1	1094	1090	1091	1096
1460	1	1094	1090	1091	1097
1461	1	1095	1090	1091	1096
1462	1	1095	1090	1091	1097
1463	4	1096	1091	1092	1098
1464	4	1097	1091	1092	1098
1465	3	1099	1100	1101	1107
1466	2	1101	1100	1099	1102
1467	2	1101	1100	1099	1103
1468	2	1101	1100	1099	1104
1469	1	1102	1099	1100	1105
1470	1	1102	1099	1100	1106
1471	1	1103	1099	1100	1105
1472	1	1103	1099	1100	1106
1473	1	1104	1099	1100	1105
1474	1	1104	1099	1100	1106
1475	4	1105	1100	1101	1107
1476	4	1106	1100	1101	1107
1477	3	1108	1109	1110	1116
1478	2	1110	1109	1108	1111
1479	2	1110	1109	1108	1112
1480	2	1110	1109	1108	1113
1481	1	1111	1108	1109	1114
1482	1	1111	1108	1109	1115
1483	1	1112	1108	1109	1114
1484	1	1112	1108	1109	1115
1485	1	1113	1108	1109	1114
1486	1	1113	1108	1109	1115
1487	4	1114	1109	1110	1116
1488	4	1115	1109	1110	1116
1489	3	1117	1118	1119	1125
1490	2	1119	1118	1117	1120
1491	2	1119	1118	1117	1121
1492	2	1119	1118	1117	1122
1493	1	1120	1117	1118	1123
1494	1	1120	1117	1118	1124
1495	1	1121	1117	1118	1123
1496	1	1121	1117	1118	1124
1497	1	1122	1117	1118	1123
1498	1	1122	1117	1118	1124
1499	4	1123	1118	1119	1125
1500	4	1124	1118	1119	1125
1501	3	1126	1127	1128	1134
1502	2	1128	1127	1126	1129
1503	2	1128	1127	1126	1130
1504	2	1128	1127	1126	1131
1505	1	1129	1126	1127	1132
1506	1	1129	1126	1127	1133
1507	1	1130	1126	1127	1132
1508	1	1130	1126	1127	1133
1509	1	1131	1126	1127	1132
1510	1	1131	1126	1127	1133
1511	4	1132	1127	1128	1134
1512	4	1133	1127	1128	1134
1513	3	1135	1136	1137	1143
1514	2	1137	1136	1135	1138
1515	2	1137	1136	1135	1139
1516	2	1137	1136	1135	1140
1517	1	1138	1135	1136	1141
1518	1	1138	1135	1136	1142
1519	1	1139	1135	1136	1141
1520	1	1139	1135	1136	1142
1521	1	1140	1135	1136	1141
1522	1	1140	1135	1136	1142
1523	4	1141	1136	1137	1143
1524	4	1142	1136	1137	1143
1525	3	1144	1145	1146	1152
1526	2	1146	1145	1144	1147
1527	2	1146	1145	1144	1148
1528	2	1146	1145	1144	1149
1529	1	1147	1144	1145	1150
1530	1	1147	1144	1145	1151
1531	1	1148	1144	1145	1150
1532	1	1148	1144	1145	1151
1533	1	1149	1144	1145	1150
1534	1	1149	1144	1145	1151
1535	4	1150	1145	1146	1152
1536	4	1151	1145	1146	1152
1537	3	1153	1154	1155	1161
1538	2	1155	1154	1153	1156
1539	2	1155	1154	1153	1157
1540	2	1155	1154	1153	1158
1541	1	1156	1153	1154	1159
1542	1	1156	1153	1154	1160
1543	1	1157	1153	1154	1159
1544	1	1157	1153	1154	1160
1545	1	1158	1153	1154	1159
1546	1	1158	1153	1154	1160
1547	4	1159	1154	1155	1161
1548	4	1160	1154	1155	1161
1549	3	1162	1163	1164	1170
1550	2	1164	1163	1162	1165
1551	2	1164	1163	1162	1166
1552	2	1164	1163	1162	1167
1553	1	1165	1162	1163	1168
1554	1	1165	1162	1163	1169
1555	1	1166	1162	1163	1168
1556	1	1166	1162	1163	1169
1557	1	1167	1162	1163	1168
1558	1	1167	1162	1163	1169
1559	4	1168	1163	1164	1170
1560	4	1169	1163	1164	1170
1561	3	1171	1172	1173	1179
1562	2	1173	1172	1171	1174
1563	2	1173	1172	1171	1175
1564	2	1173	1172	1171	1176
1565	1	1174	1171	1172	1177
1566	1	1174	1171	1172	1178
1567	1	1175	1171	1172	1177
1568	1	1175	1171	1172	1178
1569	1	1176	1171	1172	1177
1570	1	1176	1171	1172	1178
1571	4	1177	1172	1173	1179
1572	4	1178	1172	1173	1179
1573	3	1180	1181	1182	1188
1574	2	1182	1181	1180	1183
1575	2	1182	1181	1180	1184
1576	2	1182	1181	1180	1185
1577	1	1183	1180	1181	1186
1578	1	1183	1180	1181	1187
1579	1	1184	1180	1181	1186
1580	1	1184	1180	1181	1187
1581	1	1185	1180	1181	1186
1582	1	1185	1180	1181	1187
1583	4	1186	1181	1182	1188
1584	4	1187	1181	1182	1188
1585	3	1189	1190	1191	1197
1586	2	1191	1190	1189	1192
1587	2	1191	1190	1189	1193
1588	2	1191	1190	1189	1194
1589	1	1192	1189	1190	1195
1590	1	1192	1189	1190	1196
1591	1	1193	1189	1190	1195
1592	1	1193	1189	1190	1196
1593	1	1194	1189	1190	1195
1594	1	1194	1189	1190	1196
1595	4	1195	1190	1191	1197
1596	4	1196	1190	1191	1197
1597	3	1198	1199	1200	1206
1598	2	1200	1199	1198	1201
1599	2	1200	1199	1198	1202
1600	2	1200	1199	1198	1203
1601	1	1201	1198	1199	1204
1602	1	1201	1198	1199	1205
1603	1	1202	1198	1199	1204
1604	1	1202	1198	1199	1205
1605	1	1203	1198	1199	1204
1606	1	1203	1198	1199	1205
1607	4	1204	1199	1200	1206
1608	4	1205	1199	1200	1206
1609	3	1207	1208	1209	1215
1610	2	1209	1208	1207	1210
1611	2	1209	1208	1207	1211
1612	2	1209	1208	1207	1212
1613	1	1210	1207	1208	1213
1614	1	1210	1207	1208	1214
1615	1	1211	1207	1208	1213
1616	1	1211	1207	1208	1214
1617	1	1212	1207	1208	1213
1618	1	1212	1207	1208	1214
1619	4	1213	1208	1209	1215
1620	4	1214	1208	1209	1215
1621	3	1216	1217	1218	1224
1622	2	1218	1217	1216	1219
1623	2	1218	1217	1216	1220
1624	2	1218	1217	1216	1221
1625	1	1219	1216	1217	1222
1626	1	1219	1216	1217	1223
1627	1	1220	1216	1217	1222
1628	1	1220	1216	1217	1223
1629	1	1221	1216	1217	1222
1630	1	1221	1216	1217	1223
1631	4	1222	1217	1218	1224
1632	4	1223	1217	1218	1224
1633	3	1225	1226	1227	1233
1634	2	1227	1226	1225	1228
1635	2	1227	1226	1225	1229
1636	2	1227	1226	1225	1230
1637	1	1228	1225	1226	1231
1638	1	1228	1225	1226	1232
1639	1	1229	1225	1226	1231
1640	1	1229	1225	1226	1232
1641	1	1230	1225	1226	1231
1642	1	1230	1225	1226	1232
1643	4	1231	1226	1227	1233
1644	4	1232	1226	1227	1233
1645	3	1234	1235	1236	1242
1646	2	1236	1235	1234	1237
1647	2	1236	1235	1234	1238
1648	2	1236	1235	1234	1239
1649	1	1237	1234	1235	1240
1650	1	1237	1234	1235	1241
1651	1	1238	1234	1235	1240
1652	1	1238	1234	1235	1241
1653	1	1239	1234	1235	1240
1654	1	1239	1234	1235	1241
1655	4	1240	1235	1236	1242
1656	4	1241	1235	1236	1242
1657	3	1243	1244	1245	1251
1658	2	1245	1244	1243	1246
1659	2	1245	1244	1243	1247
1660	2	1245	1244	1243	1248
1661	1	1246	1243	1244	1249
1662	1	1246	1243	1244	1250
1663	1	1247	1243	1244	1249
1664	1	1247	1243	1244	1250
1665	1	1248	1243	1244	1249
1666	1	1248	1243	1244	1250
1667	4	1249	1244	1245	1251
1668	4	1250	1244	1245	1251
1669	3	1252	1253	1254	1260
1670	2	1254	1253	1252	1255
1671	2	1254	1253	1252	1256
1672	2	1254	1253	1252	1257
1673	1	1255	1252	1253	1258
1674	1	1255	1252	1253	1259
1675	1	1256	1252	1253	1258
1676	1	1256	1252	1253	1259
1677	1	1257	1252	1253	1258
1678	1	1257	1252	1253	1259
1679	4	1258	1253	1254	1260
1680	4	1259	1253	1254	1260
1681	3	1261	1262	1263	1269
1682	2	1263	1262	1261	1264
1683	2	1263	1262	1261	1265
1684	2	1263	1262	1261	1266
1685	1	1264	1261	1262	1267
1686	1	1264	1261	1262	1268
1687	1	1265	1261	1262	1267
1688	1	1265	1261	1262	1268
1689	1	1266	1261	1262	1267
1690	1	1266	1261	1262	1268
1691	4	1267	1262	1263	1269
1692	4	1268	1262	1263	1269
1693	3	1270	1271	1272	1278
1694	2	1272	1271	1270	1273
1695	2	1272	1271	1270	1274
1696	2	1272	1271	1270	1275
1697	1	1273	1270	1271	1276
1698	1	1273	1270	1271	1277
1699	1	1274	1270	1271	1276
1700	1	1274	1270	1271	1277
1701	1	1275	1270	1271	1276
1702	1	1275	1270	1271	1277
1703	4	1276	1271	1272	1278
1704	4	1277	1271	1272	1278
1705	3	1279	1280	1281	1287
1706	2	1281	1280	1279	1282
1707	2	1281	1280	1279	1283
1708	2	1281	1280	1279	1284
1709	1	1282	1279	1280	1285
1710	1	1282	1279	1280	1286
1711	1	1283	1279	1280	1285
1712	1	1283	1279	1280	1286
1713	1	1284	1279	1280	1285
1714	1	1284	1279	1280	1286
1715	4	1285	1280	1281	1287
1716	4	1286	1280	1281	1287
1717	3	1288	1289	1290	1296
1718	2	1290	1289	1288	1291
1719	2	1290	1289	1288	1292
1720	2	1290	1289	1288	1293
1721	1	1291	1288	1289	1294
1722	1	1291	1288	1289	1295
1723	1	1292	1288	1289	1294
1724	1	1292	1288	1289	1295
1725	1	1293	1288	1289	1294
1726	1	1293	1288	1289	1295
1727	4	1294	1289	1290	1296
1728	4	1295	1289	1290	1296
1729	3	1297	1298	1299	1305
1730	2	1299	1298	1297	1300
1731	2	1299	1298	1297	1301
1732	2	1299	1298	1297	1302
1733	1	1300	1297	1298	1303
1734	1	1300	1297	1298	1304
1735	1	1301	1297	1298	1303
1736	1	1301	1297	1298	1304
1737	1	1302	1297	1298	1303
1738	1	1302	1297	1298	1304
1739	4	1303	1298	1299	1305
1740	4	1304	1298	1299	1305
1741	3	1306	1307	1308	1314
1742	2	1308	1307	1306	1309
1743	2	1308	1307	1306	1310
1744	2	1308	1307	1306	1311
1745	1	1309	1306	1307	1312
1746	1	1309	1306	1307	1313
1747	1	1310	1306	1307	1312
1748	1	1310	1306	1307	1313
1749	1	1311	1306	1307	1312
1750	1	1311	1306	1307	1313
1751	4	1312	1307	1308	1314
1752	4	1313	1307	1308	1314
1753	3	1315	1316	1317	1323
1754	2	1317	1316	1315	1318
1755	2	1317	1316	1315	1319
1756	2	1317	1316	1315	1320
1757	1	1318	1315	1316	1321
1758	1	1318	1315	1316	1322
1759	1	1319	1315	1316	1321
1760	1	1319	1315	1316	1322
1761	1	1320	1315	1316	1321
1762	1	1320	1315	1316	1322
1763	4	1321	1316	1317	1323
1764	4	1322	1316	1317	1323
1765	3	1324	1325	1326	1332
1766	2	1326	1325	1324	1327
1767	2	1326	1325	1324	1328
1768	2	1326	1325	1324	1329
1769	1	1327	1324	1325	1330
1770	1	1327	1324	1325	1331
1771	1	1328	1324	1325	1330
1772	1	1328	1324	1325	1331
1773	1	1329	1324	1325	1330
1774	1	1329	1324	1325	1331
1775	4	1330	1325	1326	1332
1776	4	1331	1325	1326	1332
1777	3	1333	1334	1335	1341
1778	2	1335	1334	1333	1336
1779	2	1335	1334	1333	1337
1780	2	1335	1334	1333	1338
1781	1	1336	1333	1334	1339
1782	1	1336	1333	1334	1340
1783	1	1337	1333	1334	1339
1784	1	1337	1333	1334	1340
1785	1	1338	1333	1334	1339
1786	1	1338	1333	1334	1340
1787	4	1339	1334	1335	1341
1788	4	1340	1334	1335	1341
1789	3	1342	1343	1344	1350
1790	2	1344	1343	1342	1345
1791	2	1344	1343	1342	1346
1792	2	1344	1343	1342	1347
1793	1	1345	1342	1343	1348
1794	1	1345	1342	1343	1349
1795	1	1346	1342	1343	1348
1796	1	1346	1342	1343	1349
1797	1	1347	1342	1343	1348
1798	1	1347	1342	1343	1349
1799	4	1348	1343	1344	1350
1800	4	1349	1343	1344	1350
1801	3	1351	1352	1353	1359
1802	2	1353	1352	1351	1354
1803	2	1353	1352	1351	1355
1804	2	1353	1352	1351	1356
1805	1	1354	1351	1352	1357
1806	1	1354	1351	1352	1358
1807	1	1355	1351	1352	1357
1808	1	1355	1351	1352	1358
1809	1	1356	1351	1352	1357
1810	1	1356	1351	1352	1358
1811	4	1357	1352	1353	1359
1812	4	1358	1352	1353	1359
1813	3	1360	1361	1362	1368
1814	2	1362	1361	1360	1363
1815	2	1362	1361	1360	1364
1816	2	1362	1361	1360	1365
1817	1	1363	1360	1361	1366
1818	1	1363	1360	1361	1367
1819	1	1364	1360	1361	1366
1820	1	1364	1360	1361	1367
1821	1	1365	1360	1361	1366
1822	1	1365	1360	1361	1367
1823	4	1366	1361	1362	1368
1824	4	1367	1361	1362	1368
1825	3	1369	1370	1371	1377
1826	2	1371	1370	1369	1372
1827	2	1371	1370	1369	1373
1828	2	1371	1370	1369	1374
1829	1	1372	1369	1370	1375
1830	1	1372	1369	1370	1376
1831	1	1373	1369	1370	1375
1832	1	1373	1369	1370	1376
1833	1	1374	1369	1370	1375
1834	1	1374	1369	1370	1376
1835	4	1375	1370	1371	1377
1836	4	1376	1370	1371	1377
1837	3	1378	1379	1380	1386
1838	2	1380	1379	1378	1381
1839	2	1380	1379	1378	1382
1840	2	1380	1379	1378	1383
1841	1	1381	1378	1379	1384
1842	1	1381	1378	1379	1385
1843	1	1382	1378	1379	1384
1844	1	1382	1378	1379	1385
1845	1	1383	1378	1379	1384
1846	1	1383	1378	1379	1385
1847	4	1384	1379	1380	1386
1848	4	1385	1379	1380	1386
1849	3	1387	1388	1389	1395
1850	2	1389	1388	1387	1390
1851	2	1389	1388	1387	1391
1852	2	1389	1388	1387	1392
1853	1	1390	1387	1388	1393
1854	1	1390	1387	1388	1394
1855	1	1391	1387	1388	1393
1856	1	1391	1387	1388	1394
1857	1	1392	1387	1388	1393
1858	1	1392	1387	1388	1394
1859	4	1393	1388	1389	1395
1860	4	1394	1388	1389	1395
1861	3	1396	1397	1398	1404
1862	2	1398	1397	1396	1399
1863	2	1398	1397	1396	1400
1864	2	1398	1397	1396	1401
1865	1	1399	1396	1397	1402
1866	1	1399	1396	1397	1403
1867	1	1400	1396	1397	1402
1868	1	1400	1396	1397	1403
1869	1	1401	1396	1397	1402
1870	1	1401	1396	1397	1403
1871	4	1402	1397	1398	1404
1872	4	1403	1397	1398	1404
1873	3	1405	1406	1407	1413
1874	2	1407	1406	1405	1408
1875	2	1407	1406	1405	1409
1876	2	1407	1406	1405	1410
1877	1	1408	1405	1406	1411
1878	1	1408	1405	1406	1412
1879	1	1409	1405	1406	1411
1880	1	1409	1405	1406	1412
1881	1	1410	1405	1406	1411
1882	1	1410	1405	1406	1412
1883	4	1411	1406	1407	1413
1884	4	1412	1406	1407	1413
1885	3	1414	1415	1416	1422
1886	2	1416	1415	1414	1417
1887	2	1416	1415	1414	1418
1888	2	1416	1415	1414	1419
1889	1	1417	1414	1415	1420
1890	1	1417	1414	1415	1421
1891	1	1418	1414	1415	1420
1892	1	1418	1414	1415	1421
1893	1	1419	1414	1415	1420
1894	1	1419	1414	1415	1421
1895	4	1420	1415	1416	1422
1896	4	1421	1415	1416	1422
1897	3	1423	1424	1425	1431
1898	2	1425	1424	1423	1426
1899	2	1425	1424	1423	1427
1900	2	1425	1424	1423	1428
1901	1	1426	1423	1424	1429
1902	1	1426	1423	1424	1430
1903	1	1427	1423	1424	1429
1904	1	1427	1423	1424	1430
1905	1	1428	1423	1424	1429
1906	1	1428	1423	1424	1430
1907	4	1429	1424	1425	1431
1908	4	1430	1424	1425	1431
1909	3	1432	1433	1434	1440
1910	2	1434	1433	1432	1435
1911	2	1434	1433	1432	1436
1912	2	1434	1433	1432	1437
1913	1	1435	1432	1433	1438
1914	1	1435	1432	1433	1439
1915	1	1436	1432	1433	1438
1916	1	1436	1432	1433	1439
1917	1	1437	1432	1433	1438
1918	1	1437	1432	1433	1439
1919	4	1438	1433	1434	1440
1920	4	1439	1433	1434	1440
1921	3	1441	1442	1443	1449
1922	2	1443	1442	1441	1444
1923	2	1443	1442	1441	1445
1924	2	1443	1442	1441	1446
1925	1	1444	1441	1442	1447
1926	1	1444	1441	1442	1448
1927	1	1445	1441	1442	1447
1928	1	1445	1441	1442	1448
1929	1	1446	1441	1442	1447
1930	1	1446	1441	1442	1448
1931	4	1447	1442	1443	1449
1932	4	1448	1442	1443	1449
1933	3	1450	1451	1452	1458
1934	2	1452	1451	1450	1453
1935	2	1452	1451	1450	1454
1936	2	1452	1451	1450	1455
1937	1	1453	1450	1451	1456
1938	1	1453	1450	1451	1457
1939	1	1454	1450	1451	1456
1940	1	1454	1450	1451	1457
1941	1	1455	1450	1451	1456
1942	1	1455	1450	1451	1457
1943	4	1456	1451	1452	1458
1944	4	1457	1451	1452	1458
1945	3	1459	1460	1461	1467
1946	2	1461	1460	1459	1462
1947	2	1461	1460	1459	1463
1948	2	1461	1460	1459	1464
1949	1	1462	1459	1460	1465
1950	1	1462	1459	1460	1466
1951	1	1463	1459	1460	1465
1952	1	1463	1459	1460	1466
1953	1	1464	1459	1460	1465
1954	1	1464	1459	1460	1466
1955	4	1465	1460	1461	1467
1956	4	1466	1460	1461	1467
1957	3	1468	1469	1470	1476
1958	2	1470	1469	1468	1471
1959	2	1470	1469	1468	1472
1960	2	1470	1469	1468	1473
1961	1	1471	1468	1469	1474
1962	1	1471	1468	1469	1475
1963	1	1472	1468	1469	1474
1964	1	1472	1468	1469	1475
1965	1	1473	1468	1469	1474
1966	1	1473	1468	1469	1475
1967	4	1474	1469	1470	1476
1968	4	1475	1469	1470	1476
1969	3	1477	1478	1479	1485
1970	2	1479	1478	1477	1480
1971	2	1479	1478	1477	1481
1972	2	1479	1478	1477	1482
1973	1	1480	1477	1478	1483
1974	1	1480	1477	1478	1484
1975	1	1481	1477	1478	1483
1976	1	1481	1477	1478	1484
1977	1	1482	1477	1478	1483
1978	1	1482	1477	1478	1484
1979	4	1483	1478	1479	1485
1980	4	1484	1478	1479	1485
1981	3	1486	1487	1488	1494
1982	2	1488	1487	1486	1489
1983	2	1488	1487	1486	1490
1984	2	1488	1487	1486	1491
1985	1	1489	1486	1487	1492
1986	1	1489	1486	1487	1493
1987	1	1490	1486	1487	1492
1988	1	1490	1486	1487	1493
1989	1	1491	1486	1487	1492
1990	1	1491	1486	1487	1493
1991	4	1492	1487	1488	1494
1992	4	1493	1487	1488	1494
1993	3	1495	1496	1497	1503
1994	2	1497	1496	1495	1498
1995	2	1497	1496	1495	1499
1996	2	1497	1496	1495	1500
1997	1	1498	1495	1496	1501
1998	1	1498	1495	1496	1502
1999	1	1499	1495	1496	1501
2000	1	1499	1495	1496	1502
2001	1	1500	1495	1496	1501
2002	1	1500	1495	1496	1502
2003	4	1501	1496	1497	1503
2004	4	1502	1496	1497	1503
2005	3	1504	1505	1506	1512
2006	2	1506	1505	1504	1507
2007	2	1506	1505	1504	1508
2008	2	1506	1505	1504	1509
2009	1	1507	1504	1505	1510
2010	1	1507	1504	1505	1511
2011	1	1508	1504	1505	1510
2012	1	1508	1504	1505	1511
2013	1	1509	1504	1505	1510
2014	1	1509	1504	1505	1511
2015	4	1510	1505	1506	1512
2016	4	1511	1505	1506	1512
2017	3	1513	1514	1515	1521
2018	2	1515	1514	1513	1516
2019	2	1515	1514	1513	1517
2020	2	1515	1514	1513	1518
2021	1	1516	1513	1514	1519
2022	1	1516	1513	1514	1520
2023	1	1517	1513	1514	1519
2024	1	1517	1513	1514	1520
2025	1	1518	1513	1514	1519
2026	1	1518	1513	1514	1520
2027	4	1519	1514	1515	1521
2028	4	1520	1514	1515	1521
2029	3	1522	1523	1524	1530
2030	2	1524	1523	1522	1525
2031	2	1524	1523	1522	1526
2032	2	1524	1523	1522	1527
2033	1	1525	1522	1523	1528
2034	1	1525	1522	1523	1529
2035	1	1526	1522	1523	1528
2036	1	1526	1522	1523	1529
2037	1	1527	1522	1523	1528
2038	1	1527	1522	1523	1529
2039	4	1528	1523	1524	1530
2040	4	1529	1523	1524	1530
2041	3	1531	1532	1533	1539
2042	2	1533	1532	1531	1534
2043	2	1533	1532	1531	1535
2044	2	1533	1532	1531	1536
2045	1	1534	1531	1532	1537
2046	1	1534	1531	1532	1538
2047	1	1535	1531	1532	1537
2048	1	1535	1531	1532	1538
2049	1	1536	1531	1532	1537
2050	1	1536	1531	1532	1538
2051	4	1537	1532	1533	1539
2052	4	1538	1532	1533	1539
2053	3	1540	1541	1542	1548
2054	2	1542	1541	1540	1543
2055	2	1542	1541	1540	1544
2056	2	1542	1541	1540	1545
2057	1	1543	1540	1541	1546
2058	1	1543	1540	1541	1547
2059	1	1544	1540	1541	1546
2060	1	1544	1540	1541	1547
2061	1	1545	1540	1541	1546
2062	1	1545	1540	1541	1547
2063	4	1546	1541	1542	1548
2064	4	1547	1541	1542	1548
2065	3	1549	1550	1551	1557
2066	2	1551	1550	1549	1552
2067	2	1551	1550	1549	1553
2068	2	1551	1550	1549	1554
2069	1	1552	1549	1550	1555
2070	1	1552	1549	1550	1556
2071	1	1553	1549	1550	1555
2072	1	1553	1549	1550	1556
2073	1	1554	1549	1550	1555
2074	1	1554	1549	1550	1556
2075	4	1555	1550	1551	1557
2076	4	1556	1550	1551	1557
2077	3	1558	1559	1560	1566
2078	2	1560	1559	1558	1561
2079	2	1560	1559	1558	1562
2080	2	1560	1559	1558	1563
2081	1	1561	1558	1559	1564
2082	1	1561	1558	1559	1565
2083	1	1562	1558	1559	1564
2084	1	1562	1558	1559	1565
2085	1	1563	1558	1559	1564
2086	1	1563	1558	1559	1565
2087	4	1564	1559	1560	1566
2088	4	1565	1559	1560	1566
2089	3	1567	1568	1569	1575
2090	2	1569	1568	1567	1570
2091	2	1569	1568	1567	1571
2092	2	1569	1568	1567	1572
2093	1	1570	1567	1568	1573
2094	1	1570	1567	1568	1574
2095	1	1571	1567	1568	1573
2096	1	1571	1567	1568	1574
2097	1	1572	1567	1568	1573
2098	1	1572	1567	1568	1574
2099	4	1573	1568	1569	1575
2100	4	1574	1568	1569	1575
2101	3	1576	1577	1578	1584
2102	2	1578	1577	1576	1579
2103	2	1578	1577	1576	1580
2104	2	1578	1577	1576	1581
2105	1	1579	1576	1577	1582
2106	1	1579	1576	1577	1583
2107	1	1580	1576	1577	1582
2108	1	1580	1576	1577	1583
2109	1	1581	1576	1577	1582
2110	1	1581	1576	1577	1583
2111	4	1582	1577	1578	1584
2112	4	1583	1577	1578	1584
2113	3	1585	1586	1587	1593
2114	2	1587	1586	1585	1588
2115	2	1587	1586	1585	1589
2116	2	1587	1586	1585	1590
2117	1	1588	1585	1586	1591
2118	1	1588	1585	1586	1592
2119	1	1589	1585	1586	1591
2120	1	1589	1585	1586	1592
2121	1	1590	1585	1586	1591
2122	1	1590	1585	1586	1592
2123	4	1591	1586	1587	1593
2124	4	1592	1586	1587	1593
2125	3	1594	1595	1596	1602
2126	2	1596	1595	1594	1597
2127	2	1596	1595	1594	1598
2128	2	1596	1595	1594	1599
2129	1	1597	1594	1595	1600
2130	1	1597	1594	1595	1601
2131	1	1598	1594	1595	1600
2132	1	1598	1594	1595	1601
2133	1	1599	1594	1595	1600
2134	1	1599	1594	1595	1601
2135	4	1600	1595	1596	1602
2136	4	1601	1595	1596	1602
2137	3	1603	1604	1605	1611
2138	2	1605	1604	1603	1606
2139	2	1605	1604	1603	1607
2140	2	1605	1604	1603	1608
2141	1	1606	1603	1604	1609
2142	1	1606	1603	1604	1610
2143	1	1607	1603	1604	1609
2144	1	1607	1603	1604	1610
2145	1	1608	1603	1604	1609
2146	1	1608	1603	1604	1610
2147	4	1609	1604	1605	1611
2148	4	1610	1604	1605	1611
2149	3	1612	1613	1614	1620
2150	2	1614	1613	1612	1615
2151	2	1614	1613	1612	1616
2152	2	1614	1613	1612	1617
2153	1	1615	1612	1613	1618
2154	1	1615	1612	1613	1619
2155	1	1616	1612	1613	1618
2156	1	1616	1612	1613	1619
2157	1	1617	1612	1613	1618
2158	1	1617	1612	1613	1619
2159	4	1618	1613	1614	1620
2160	4	1619	1613	1614	1620
2161	3	1621	1622	1623	1629
2162	2	1623	1622	1621	1624
2163	2	1623	1622	1621	1625
2164	2	1623	1622	1621	1626
2165	1	1624	1621	1622	1627
2166	1	1624	1621	1622	1628
2167	1	1625	1621	1622	1627
2168	1	1625	1621	1622	1628
2169	1	1626	1621	1622	1627
2170	1	1626	1621	1622	1628
2171	4	1627	1622	1623	1629
2172	4	1628	1622	1623	1629
2173	3	1630	1631	1632	1638
2174	2	1632	1631	1630	1633
2175	2	1632	1631	1630	1634
2176	2	1632	1631	1630	1635
2177	1	1633	1630	1631	1636
2178	1	1633	1630	1631	1637
2179	1	1634	1630	1631	1636
2180	1	1634	1630	1631	1637
2181	1	1635	1630	1631	1636
2182	1	1635	1630	1631	1637
2183	4	1636	1631	1632	1638
2184	4	1637	1631	1632	1638
2185	3	1639	1640	1641	1647
2186	2	1641	1640	1639	1642
2187	2	1641	1640	1639	1643
2188	2	1641	1640	1639	1644
2189	1	1642	1639	1640	1645
2190	1	1642	1639	1640	1646
2191	1	1643	1639	1640	1645
2192	1	1643	1639	1640	1646
2193	1	1644	1639	1640	1645
2194	1	1644	1639	1640	1646
2195	4	1645	1640	1641	1647
2196	4	1646	1640	1641	1647
2197	3	1648	1649	1650	1656
2198	2	1650	1649	1648	1651
2199	2	1650	1649	1648	1652
2200	2	1650	1649	1648	1653
2201	1	1651	1648	1649	1654
2202	1	1651	1648	1649	1655
2203	1	1652	1648	1649	1654
2204	1	1652	1648	1649	1655
2205	1	1653	1648	1649	1654
2206	1	1653	1648	1649	1655
2207	4	1654	1649	1650	1656
2208	4	1655	1649	1650	1656
2209	3	1657	1658	1659	1665
2210	2	1659	1658	1657	1660
2211	2	1659	1658	1657	1661
2212	2	1659	1658	1657	1662
2213	1	1660	1657	1658	1663
2214	1	1660	1657	1658	1664
2215	1	1661	1657	1658	1663
2216	1	1661	1657	1658	1664
2217	1	1662	1657	1658	1663
2218	1	1662	1657	1658	1664
2219	4	1663	1658	1659	1665
2220	4	1664	1658	1659	1665
2221	3	1666	1667	1668	1674
2222	2	1668	1667	1666	1669
2223	2	1668	1667	1666	1670
2224	2	1668	1667	1666	1671
2225	1	1669	1666	1667	1672
2226	1	1669	1666	1667	1673
2227	1	1670	1666	1667	1672
2228	1	1670	1666	1667	1673
2229	1	1671	1666	1667	1672
2230	1	1671	1666	1667	1673
2231	4	1672	1667	1668	1674
2232	4	1673	1667	1668	1674
2233	3	1675	1676	1677	1683
2234	2	1677	1676	1675	1678
2235	2	1677	1676	1675	1679
2236	2	1677	1676	1675	1680
2237	1	1678	1675	1676	1681
2238	1	1678	1675	1676	1682
2239	1	1679	1675	1676	1681
2240	1	1679	1675	1676	1682
2241	1	1680	1675	1676	1681
2242	1	1680	1675	1676	1682
2243	4	1681	1676	1677	1683
2244	4	1682	1676	1677	1683
2245	3	1684	1685	1686	1692
2246	2	1686	1685	1684	1687
2247	2	1686	1685	1684	1688
2248	2	1686	1685	1684	1689
2249	1	1687	1684	1685	1690
2250	1	1687	1684	1685	1691
2251	1	1688	1684	1685	1690
2252	1	1688	1684	1685	1691
2253	1	1689	1684	1685	1690
2254	1	1689	1684	1685	1691
2255	4	1690	1685	1686	1692
2256	4	1691	1685	1686	1692
2257	3	1693	1694	1695	1701
2258	2	1695	1694	1693	1696
2259	2	1695	1694	1693	1697
2260	2	1695	1694	1693	1698
2261	1	1696	1693	1694	1699
2262	1	1696	1693	1694	1700
2263	1	1697	1693	1694	1699
2264	1	1697	1693	1694	1700
2265	1	1698	1693	1694	1699
2266	1	1698	1693	1694	1700
2267	4	1699	1694	1695	1701
2268	4	1700	1694	1695	1701
2269	3	1702	1703	1704	1710
2270	2	1704	1703	1702	1705
2271	2	1704	1703	1702	1706
2272	2	1704	1703	1702	1707
2273	1	1705	1702	1703	1708
2274	1	1705	1702	1703	1709
2275	1	1706	1702	1703	1708
2276	1	1706	1702	1703	1709
2277	1	1707	1702	1703	1708
2278	1	1707	1702	1703	1709
2279	4	1708	1703	1704	1710
2280	4	1709	1703	1704	1710
2281	3	1711	1712	1713	1719
2282	2	1713	1712	1711	1714
2283	2	1713	1712	1711	1715
2284	2	1713	1712	1711	1716
2285	1	1714	1711	1712	1717
2286	1	1714	1711	1712	1718
2287	1	1715	1711	1712	1717
2288	1	1715	1711	1712	1718
2289	1	1716	1711	1712	1717
2290	1	1716	1711	1712	1718
2291	4	1717	1712	1713	1719
2292	4	1718	1712	1713	1719
2293	3	1720	1721	1722	1728
2294	2	1722	1721	1720	1723
2295	2	1722	1721	1720	1724
2296	2	1722	1721	1720	1725
2297	1	1723	1720	1721	1726
2298	1	1723	1720	1721	1727
2299	1	1724	1720	1721	1726
2300	1	1724	1720	1721	1727
2301	1	1725	1720	1721	1726
2302	1	1725	1720	1721	1727
2303	4	1726	1721	1722	1728
2304	4	1727	1721	1722	1728
2305	3	1729	1730	1731	1737
2306	2	1731	1730	1729	1732
2307	2	1731	1730	1729	1733
2308	2	1731	1730	1729	1734
2309	1	1732	1729	1730	1735
2310	1	1732	1729	1730	1736
2311	1	1733	1729	1730	1735
2312	1	1733	1729	1730	1736
2313	1	1734	1729	1730	1735
2314	1	1734	1729	1730	1736
2315	4	1735	1730	1731	1737
2316	4	1736	1730	1731	1737
2317	3	1738	1739	1740	1746
2318	2	1740	1739	1738	1741
2319	2	1740	1739	1738	1742
2320	2	1740	1739	1738	1743
2321	1	1741	1738	1739	1744
2322	1	1741	1738	1739	1745
2323	1	1742	1738	1739	1744
2324	1	1742	1738	1739	1745
2325	1	1743	1738	1739	1744
2326	1	1743	1738	1739	1745
2327	4	1744	1739	1740	1746
2328	4	1745	1739	1740	1746
2329	3	1747	1748	1749	1755
2330	2	1749	1748	1747	1750
2331	2	1749	1748	1747	1751
2332	2	1749	1748	1747	1752
2333	1	1750	1747	1748	1753
2334	1	1750	1747	1748	1754
2335	1	1751	1747	1748	1753
2336	1	1751	1747	1748	1754
2337	1	1752	1747	1748	1753
2338	1	1752	1747	1748	1754
2339	4	1753	1748	1749	1755
2340	4	1754	1748	1749	1755
2341	3	1756	1757	1758	1764
2342	2	1758	1757	1756	1759
2343	2	1758	1757	1756	1760
2344	2	1758	1757	1756	1761
2345	1	1759	1756	1757	1762
2346	1	1759	1756	1757	1763
2347	1	1760	1756	1757	1762
2348	1	1760	1756	1757	1763
2349	1	1761	1756	1757	1762
2350	1	1761	1756	1757	1763
2351	4	1762	1757	1758	1764
2352	4	1763	1757	1758	1764
2353	3	1765	1766	1767	1773
2354	2	1767	1766	1765	1768
2355	2	1767	1766	1765	1769
2356	2	1767	1766	1765	1770
2357	1	1768	1765	1766	1771
2358	1	1768	1765	1766	1772
2359	1	1769	1765	1766	1771
2360	1	1769	1765	1766	1772
2361	1	1770	1765	1766	1771
2362	1	1770	1765	1766	1772
2363	4	1771	1766	1767	1773
2364	4	1772	1766	1767	1773
2365	3	1774	1775	1776	1782
2366	2	1776	1775	1774	1777
2367	2	1776	1775	1774	1778
2368	2	1776	1775	1774	1779
2369	1	1777	1774	1775	1780
2370	1	1777	1774	1775	1781
2371	1	1778	1774	1775	1780
2372	1	1778	1774	1775	1781
2373	1	1779	1774	1775	1780
2374	1	1779	1774	1775	1781
2375	4	1780	1775	1776	1782
2376	4	1781	1775	1776	1782
2377	3	1783	1784	1785	1791
2378	2	1785	1784	1783	1786
2379	2	1785	1784	1783	1787
2380	2	1785	1784	1783	1788
2381	1	1786	1783	1784	1789
2382	1	1786	1783	1784	1790
2383	1	1787	1783	1784	1789
2384	1	1787	1783	1784	1790
2385	1	1788	1783	1784	1789
2386	1	1788	1783	1784	1790
2387	4	1789	1784	1785	1791
2388	4	1790	1784	1785	1791
2389	3	1792	1793	1794	1800
2390	2	1794	1793	1792	1795
2391	2	1794	1793	1792	1796
2392	2	1794	1793	1792	1797
2393	1	1795	1792	1793	1798
2394	1	1795	1792	1793	1799
2395	1	1796	1792	1793	1798
2396	1	1796	1792	1793	1799
2397	1	1797	1792	1793	1798
2398	1	1797	1792	1793	1799
2399	4	1798	1793	1794	1800
2400	4	1799	1793	1794	1800
2401	3	1801	1802	1803	1809
2402	2	1803	1802	1801	1804
2403	2	1803	1802	1801	1805
2404	2	1803	1802	1801	1806
2405	1	1804	1801	1802	1807
2406	1	1804	1801	1802	1808
2407	1	1805	1801	1802	1807
2408	1	1805	1801	1802	1808
2409	1	1806	1801	1802	1807
2410	1	1806	1801	1802	1808
2411	4	1807	1802	1803	1809
2412	4	1808	1802	1803	1809
2413	3	1810	1811	1812	1818
2414	2	1812	1811	1810	1813
2415	2	1812	1811	1810	1814
2416	2	1812	1811	1810	1815
2417	1	1813	1810	1811	1816
2418	1	1813	1810	1811	1817
2419	1	1814	1810	1811	1816
2420	1	1814	1810	1811	1817
2421	1	1815	1810	1811	1816
2422	1	1815	1810	1811	1817
2423	4	1816	1811	1812	1818
2424	4	1817	1811	1812	1818
2425	3	1819	1820	1821	1827
2426	2	1821	1820	1819	1822
2427	2	1821	1820	1819	1823
2428	2	1821	1820	1819	1824
2429	1	1822	1819	1820	1825
2430	1	1822	1819	1820	1826
2431	1	1823	1819	1820	1825
2432	1	1823	1819	1820	1826
2433	1	1824	1819	1820	1825
2434	1	1824	1819	1820	1826
2435	4	1825	1820	1821	1827
2436	4	1826	1820	1821	1827
2437	3	1828	1829	1830	1836
2438	2	1830	1829	1828	1831
2439	2	1830	1829	1828	1832
2440	2	1830	1829	1828	1833
2441	1	1831	1828	1829	1834
2442	1	1831	1828	1829	1835
2443	1	1832	1828	1829	1834
2444	1	1832	1828	1829	1835
2445	1	1833	1828	1829	1834
2446	1	1833	1828	1829	1835
2447	4	1834	1829	1830	1836
2448	4	1835	1829	1830	1836
2449	3	1837	1838	1839	1845
2450	2	1839	1838	1837	1840
2451	2	1839	1838	1837	1841
2452	2	1839	1838	1837	1842
2453	1	1840	1837	1838	1843
2454	1	1840	1837	1838	1844
2455	1	1841	1837	1838	1843
2456	1	1841	1837	1838	1844
2457	1	1842	1837	1838	1843
2458	1	1842	1837	1838	1844
2459	4	1843	1838	1839	1845
2460	4	1844	1838	1839	1845
2461	3	1846	1847	1848	1854
2462	2	1848	1847	1846	1849
2463	2	1848	1847	1846	1850
2464	2	1848	1847	1846	1851
2465	1	1849	1846	1847	1852
2466	1	1849	1846	1847	1853
2467	1	1850	1846	1847	1852
2468	1	1850	1846	1847	1853
2469	1	1851	1846	1847	1852
2470	1	1851	1846	1847	1853
2471	4	1852	1847	1848	1854
2472	4	1853	1847	1848	1854
2473	3	1855	1856	1857	1863
2474	2	1857	1856	1855	1858
2475	2	1857	1856	1855	1859
2476	2	1857	1856	1855	1860
2477	1	1858	1855	1856	1861
2478	1	1858	1855	1856	1862
2479	1	1859	1855	1856	1861
2480	1	1859	1855	1856	1862
2481	1	1860	1855	1856	1861
2482	1	1860	1855	1856	1862
2483	4	1861	1856	1857	1863
2484	4	1862	1856	1857	1863
2485	3	1864	1865	1866	1872
2486	2	1866	1865	1864	1867
2487	2	1866	1865	1864	1868
2488	2	1866	1865	1864	1869
2489	1	1867	1864	1865	1870
2490	1	1867	1864	1865	1871
2491	1	1868	1864	1865	1870
2492	1	1868	1864	1865	1871
2493	1	1869	1864	1865	1870
2494	1	1869	1864	1865	1871
2495	4	1870	1865	1866	1872
2496	4	1871	1865	1866	1872
2497	3	1873	1874	1875	1881
2498	2	1875	1874	1873	1876
2499	2	1875	1874	1873	1877
2500	2	1875	1874	1873	1878
2501	1	1876	1873	1874	1879
2502	1	1876	1873	1874	1880
2503	1	1877	1873	1874	1879
2504	1	1877	1873	1874	1880
2505	1	1878	1873	1874	1879
2506	1	1878	1873	1874	1880
2507	4	1879	1874	1875	1881
2508	4	1880	1874	1875	1881
2509	3	1882	1883	1884	1890
2510	2	1884	1883	1882	1885
2511	2	1884	1883	1882	1886
2512	2	1884	1883	1882	1887
2513	1	1885	1882	1883	1888
2514	1	1885	1882	1883	1889
2515	1	1886	1882	1883	1888
2516	1	1886	1882	1883	1889
2517	1	1887	1882	1883	1888
2518	1	1887	1882	1883	1889
2519	4	1888	1883	1884	1890
2520	4	1889	1883	1884	1890
2521	3	1891	1892	1893	1899
2522	2	1893	1892	1891	1894
2523	2	1893	1892	1891	1895
2524	2	1893	1892	1891	1896
2525	1	1894	1891	1892	1897
2526	1	1894	1891	1892	1898
2527	1	1895	1891	1892	1897
2528	1	1895	1891	1892	1898
2529	1	1896	1891	1892	1897
2530	1	1896	1891	1892	1898
2531	4	1897	1892	1893	1899
2532	4	1898	1892	1893	1899
2533	3	1900	1901	1902	1908
2534	2	1902	1901	1900	1903
2535	2	1902	1901	1900	1904
2536	2	1902	1901	1900	1905
2537	1	1903	1900	1901	1906
2538	1	1903	1900	1901	1907
2539	1	1904	1900	1901	1906
2540	1	1904	1900	1901	1907
2541	1	1905	1900	1901	1906
2542	1	1905	1900	1901	1907
2543	4	1906	1901	1902	1908
2544	4	1907	1901	1902	1908
2545	3	1909	1910	1911	1917
2546	2	1911	1910	1909	1912
2547	2	1911	1910	1909	1913
2548	2	1911	1910	1909	1914
2549	1	1912	1909	1910	1915
2550	1	1912	1909	1910	1916
2551	1	1913	1909	1910	1915
2552	1	1913	1909	1910	1916
2553	1	1914	1909	1910	1915
2554	1	1914	1909	1910	1916
2555	4	1915	1910	1911	1917
2556	4	1916	1910	1911	1917
2557	3	1918	1919	1920	1926
2558	2	1920	1919	1918	1921
2559	2	1920	1919	1918	1922
2560	2	1920	1919	1918	1923
2561	1	1921	1918	1919	1924
2562	1	1921	1918	1919	1925
2563	1	1922	1918	1919	1924
2564	1	1922	1918	1919	1925
2565	1	1923	1918	1919	1924
2566	1	1923	1918	1919	1925
2567	4	1924	1919	1920	1926
2568	4	1925	1919	1920	1926
2569	3	1927	1928	1929	1935
2570	2	1929	1928	1927	1930
2571	2	1929	1928	1927	1931
2572	2	1929	1928	1927	1932
2573	1	1930	1927	1928	1933
2574	1	1930	1927	1928	1934
2575	1	1931	1927	1928	1933
2576	1	1931	1927	1928	1934
2577	1	1932	1927	1928	1933
2578	1	1932	1927	1928	1934
2579	4	1933	1928	1929	1935
2580	4	1934	1928	1929	1935
2581	3	1936	1937	1938	1944
2582	2	1938	1937	1936	1939
2583	2	1938	1937	1936	1940
2584	2	1938	1937	1936	1941
2585	1	1939	1936	1937	1942
2586	1	1939	1936	1937	1943
2587	1	1940	1936	1937	1942
2588	1	1940	1936	1937	1943
2589	1	1941	1936	1937	1942
2590	1	1941	1936	1937	1943
2591	4	1942	1937	1938	1944
2592	4	1943	1937	1938	1944
2593	3	1945	1946	1947	1953
2594	2	1947	1946	1945	1948
2595	2	1947	1946	1945	1949
2596	2	1947	1946	1945	1950
2597	1	1948	1945	1946	1951
2598	1	1948	1945	1946	1952
2599	1	1949	1945	1946	1951
2600	1	1949	1945	1946	1952
2601	1	1950	1945	1946	1951
2602	1	1950	1945	1946	1952
2603	4	1951	1946	1947	1953
2604	4	1952	1946	1947	1953
2605	3	1954	1955	1956	1962
2606	2	1956	1955	1954	1957
2607	2	1956	1955	1954	1958
2608	2	1956	1955	1954	1959
2609	1	1957	1954	1955	1960
2610	1	1957	1954	1955	1961
2611	1	1958	1954	1955	1960
2612	1	1958	1954	1955	1961
2613	1	1959	1954	1955	1960
2614	1	1959	1954	1955	1961
2615	4	1960	1955	1956	1962
2616	4	1961	1955	1956	1962
2617	3	1963	1964	1965	1971
2618	2	1965	1964	1963	1966
2619	2	1965	1964	1963	1967
2620	2	1965	1964	1963	1968
2621	1	1966	1963	1964	1969
2622	1	1966	1963	1964	1970
2623	1	1967	1963	1964	1969
2624	1	1967	1963	1964	1970
2625	1	1968	1963	1964	1969
2626	1	1968	1963	1964	1970
2627	4	1969	1964	1965	1971
2628	4	1970	1964	1965	1971
2629	3	1972	1973	1974	1980
2630	2	1974	1973	1972	1975
2631	2	1974	1973	1972	1976
2632	2	1974	1973	1972	1977
2633	1	1975	1972	1973	1978
2634	1	1975	1972	1973	1979
2635	1	1976	1972	1973	1978
2636	1	1976	1972	1973	1979
2637	1	1977	1972	1973	1978
2638	1	1977	1972	1973	1979
2639	4	1978	1973	1974	1980
2640	4	1979	1973	1974	1980
2641	3	1981	1982	1983	1989
2642	2	1983	1982	1981	1984
2643	2	1983	1982	1981	1985
2644	2	1983	1982	1981	1986
2645	1	1984	1981	1982	1987
2646	1	1984	1981	1982	1988
2647	1	1985	1981	1982	1987
2648	1	1985	1981	1982	1988
2649	1	1986	1981	1982	1987
2650	1	1986	1981	1982	1988
2651	4	1987	1982	1983	1989
2652	4	1988	1982	1983	1989
2653	3	1990	1991	1992	1998
2654	2	1992	1991	1990	1993
2655	2	1992	1991	1990	1994
2656	2	1992	1991	1990	1995
2657	1	1993	1990	1991	1996
2658	1	1993	1990	1991	1997
2659	1	1994	1990	1991	1996
2660	1	1994	1990	1991	1997
2661	1	1995	1990	1991	1996
2662	1	1995	1990	1991	1997
2663	4	1996	1991	1992	1998
2664	4	1997	1991	1992	1998
2665	3	1999	2000	2001	2007
2666	2	2001	2000	1999	2002
2667	2	2001	2000	1999	2003
2668	2	2001	2000	1999	2004
2669	1	2002	1999	2000	2005
2670	1	2002	1999	2000	2006
2671	1	2003	1999	2000	2005
2672	1	2003	1999	2000	2006
2673	1	2004	1999	2000	2005
2674	1	2004	1999	2000	2006
2675	4	2005	2000	2001	2007
2676	4	2006	2000	2001	2007
2677	3	2008	2009	2010	2016
2678	2	2010	2009	2008	2011
2679	2	2010	2009	2008	2012
2680	2	2010	2009	2008	2013
2681	1	2011	2008	2009	2014
2682	1	2011	2008	2009	2015
2683	1	2012	2008	2009	2014
2684	1	2012	2008	2009	2015
2685	1	2013	2008	2009	2014
2686	1	2013	2008	2009	2015
2687	4	2014	2009	2010	2016
2688	4	2015	2009	2010	2016
2689	3	2017	2018	2019	2025
2690	2	2019	2018	2017	2020
2691	2	2019	2018	2017	2021
2692	2	2019	2018	2017	2022
2693	1	2020	2017	2018	2023
2694	1	2020	2017	2018	2024
2695	1	2021	2017	2018	2023
2696	1	2021	2017	2018	2024
2697	1	2022	2017	2018	2023
2698	1	2022	2017	2018	2024
2699	4	2023	2018	2019	2025
2700	4	2024	2018	2019	2025
2701	3	2026	2027	2028	2034
2702	2	2028	2027	2026	2029
2703	2	2028	2027	2026	2030
2704	2	2028	2027	2026	2031
2705	1	2029	2026	2027	2032
2706	1	2029	2026	2027	2033
2707	1	2030	2026	2027	2032
2708	1	2030	2026	2027	2033
2709	1	2031	2026	2027	2032
2710	1	2031	2026	2027	2033
2711	4	2032	2027	2028	2034
2712	4	2033	2027	2028	2034
2713	3	2035	2036	2037	2043
2714	2	2037	2036	2035	2038
2715	2	2037	2036	2035	2039
2716	2	2037	2036	2035	2040
2717	1	2038	2035	2036	2041
2718	1	2038	2035	2036	2042
2719	1	2039	2035	2036	2041
2720	1	2039	2035	2036	2042
2721	1	2040	2035	2036	2041
2722	1	2040	2035	2036	2042
2723	4	2041	2036	2037	2043
2724	4	2042	2036	2037	2043
2725	3	2044	2045	2046	2052
2726	2	2046	2045	2044	2047
2727	2	2046	2045	2044	2048
2728	2	2046	2045	2044	2049
2729	1	2047	2044	2045	2050
2730	1	2047	2044	2045	2051
2731	1	2048	2044	2045	2050
2732	1	2048	2044	2045	2051
2733	1	2049	2044	2045	2050
2734	1	2049	2044	2045	2051
2735	4	2050	2045	2046	2052
2736	4	2051	2045	2046	2052
2737	3	2053	2054	2055	2061
2738	2	2055	2054	2053	2056
2739	2	2055	2054	2053	2057
2740	2	2055	2054	2053	2058
2741	1	2056	2053	2054	2059
2742	1	2056	2053	2054	2060
2743	1	2057	2053	2054	2059
2744	1	2057	2053	2054	2060
2745	1	2058	2053	2054	2059
2746	1	2058	2053	2054	2060
2747	4	2059	2054	2055	2061
2748	4	2060	2054	2055	2061
2749	3	2062	2063	2064	2070
2750	2	2064	2063	2062	2065
2751	2	2064	2063	2062	2066
2752	2	2064	2063	2062	2067
2753	1	2065	2062	2063	2068
2754	1	2065	2062	2063	2069
2755	1	2066	2062	2063	2068
2756	1	2066	2062	2063	2069
2757	1	2067	2062	2063	2068
2758	1	2067	2062	2063	2069
2759	4	2068	2063	2064	2070
2760	4	2069	2063	2064	2070
2761	3	2071	2072	2073	2079
2762	2	2073	2072	2071	2074
2763	2	2073	2072	2071	2075
2764	2	2073	2072	2071	2076
2765	1	2074	2071	2072	2077
2766	1	2074	2071	2072	2078
2767	1	2075	2071	2072	2077
2768	1	2075	2071	2072	2078
2769	1	2076	2071	2072	2077
2770	1	2076	2071	2072	2078
2771	4	2077	2072	2073	2079
2772	4	2078	2072	2073	2079
2773	3	2080	2081	2082	2088
2774	2	2082	2081	2080	2083
2775	2	2082	2081	2080	2084
2776	2	2082	2081	2080	2085
2777	1	2083	2080	2081	2086
2778	1	2083	2080	2081	2087
2779	1	2084	2080	2081	2086
2780	1	2084	2080	2081	2087
2781	1	2085	2080	2081	2086
2782	1	2085	2080	2081	2087
2783	4	2086	2081	2082	2088
2784	4	2087	2081	2082	2088
2785	3	2089	2090	2091	2097
2786	2	2091	2090	2089	2092
2787	2	2091	2090	2089	2093
2788	2	2091	2090	2089	2094
2789	1	2092	2089	2090	2095
2790	1	2092	2089	2090	2096
2791	1	2093	2089	2090	2095
2792	1	2093	2089	2090	2096
2793	1	2094	2089	2090	2095
2794	1	2094	2089	2090	2096
2795	4	2095	2090	2091	2097
2796	4	2096	2090	2091	2097
2797	3	2098	2099	2100	2106
2798	2	2100	2099	2098	2101
2799	2	2100	2099	2098	2102
2800	2	2100	2099	2098	2103
2801	1	2101	2098	2099	2104
2802	1	2101	2098	2099	2105
2803	1	2102	2098	2099	2104
2804	1	2102	2098	2099	2105
2805	1	2103	2098	2099	2104
2806	1	2103	2098	2099	2105
2807	4	2104	2099	2100	2106
2808	4	2105	2099	2100	2106
2809	3	2107	2108	2109	2115
2810	2	2109	2108	2107	2110
2811	2	2109	2108	2107	2111
2812	2	2109	2108	2107	2112
2813	1	2110	2107	2108	2113
2814	1	2110	2107	2108	2114
2815	1	2111	2107	2108	2113
2816	1	2111	2107	2108	2114
2817	1	2112	2107	2108	2113
2818	1	2112	2107	2108	2114
2819	4	2113	2108	2109	2115
2820	4	2114	2108	2109	2115
2821	3	2116	2117	2118	2124
2822	2	2118	2117	2116	2119
2823	2	2118	2117	2116	2120
2824	2	2118	2117	2116	2121
2825	1	2119	2116	2117	2122
2826	1	2119	2116	2117	2123
2827	1	2120	2116	2117	2122
2828	1	2120	2116	2117	2123
2829	1	2121	2116	2117	2122
2830	1	2121	2116	2117	2123
2831	4	2122	2117	2118	2124
2832	4	2123	2117	2118	2124
2833	3	2125	2126	2127	2133
2834	2	2127	2126	2125	2128
2835	2	2127	2126	2125	2129
2836	2	2127	2126	2125	2130
2837	1	2128	2125	2126	2131
2838	1	2128	2125	2126	2132
2839	1	2129	2125	2126	2131
2840	1	2129	2125	2126	2132
2841	1	2130	2125	2126	2131
2842	1	2130	2125	2126	2132
2843	4	2131	2126	2127	2133
2844	4	2132	2126	2127	2133
2845	3	2134	2135	2136	2142
2846	2	2136	2135	2134	2137
2847	2	2136	2135	2134	2138
2848	2	2136	2135	2134	2139
2849	1	2137	2134	2135	2140
2850	1	2137	2134	2135	2141
2851	1	2138	2134	2135	2140
2852	1	2138	2134	2135	2141
2853	1	2139	2134	2135	2140
2854	1	2139	2134	2135	2141
2855	4	2140	2135	2136	2142
2856	4	2141	2135	2136	2142
2857	3	2143	2144	2145	2151
2858	2	2145	2144	2143	2146
2859	2	2145	2144	2143	2147
2860	2	2145	2144	2143	2148
2861	1	2146	2143	2144	2149
2862	1	2146	2143	2144	2150
2863	1	2147	2143	2144	2149
2864	1	2147	2143	2144	2150
2865	1	2148	2143	2144	2149
2866	1	2148	2143	2144	2150
2867	4	2149	2144	2145	2151
2868	4	2150	2144	2145	2151
2869	3	2152	2153	2154	2160
2870	2	2154	2153	2152	2155
2871	2	2154	2153	2152	2156
2872	2	2154	2153	2152	2157
2873	1	2155	2152	2153	2158
2874	1	2155	2152	2153	2159
2875	1	2156	2152	2153	2158
2876	1	2156	2152	2153	2159
2877	1	2157	2152	2153	2158
2878	1	2157	2152	2153	2159
2879	4	2158	2153	2154	2160
2880	4	2159	2153	2154	2160
2881	3	2161	2162	2163	2169
2882	2	2163	2162	2161	2164
2883	2	2163	2162	2161	2165
2884	2	2163	2162	2161	2166
2885	1	2164	2161	2162	2167
2886	1	2164	2161	2162	2168
2887	1	2165	2161	2162	2167
2888	1	2165	2161	2162	2168
2889	1	2166	2161	2162	2167
2890	1	2166	2161	2162	2168
2891	4	2167	2162	2163	2169
2892	4	2168	2162	2163	2169
2893	3	2170	2171	2172	2178
2894	2	2172	2171	2170	2173
2895	2	2172	2171	2170	2174
2896	2	2172	2171	2170	2175
2897	1	2173	2170	2171	2176
2898	1	2173	2170	2171	2177
2899	1	2174	2170	2171	2176
2900	1	2174	2170	2171	2177
2901	1	2175	2170	2171	2176
2902	1	2175	2170	2171	2177
2903	4	2176	2171	2172	2178
2904	4	2177	2171	2172	2178
2905	3	2179	2180	2181	2187
2906	2	2181	2180	2179	2182
2907	2	2181	2180	2179	2183
2908	2	2181	2180	2179	2184
2909	1	2182	2179	2180	2185
2910	1	2182	2179	2180	2186
2911	1	2183	2179	2180	2185
2912	1	2183	2179	2180	2186
2913	1	2184	2179	2180	2185
2914	1	2184	2179	2180	2186
2915	4	2185	2180	2181	2187
2916	4	2186	2180	2181	2187
2917	3	2188	2189	2190	2196
2918	2	2190	2189	2188	2191
2919	2	2190	2189	2188	2192
2920	2	2190	2189	2188	2193
2921	1	2191	2188	2189	2194
2922	1	2191	2188	2189	2195
2923	1	2192	2188	2189	2194
2924	1	2192	2188	2189	2195
2925	1	2193	2188	2189	2194
2926	1	2193	2188	2189	2195
2927	4	2194	2189	2190	2196
2928	4	2195	2189	2190	2196
2929	3	2197	2198	2199	2205
2930	2	2199	2198	2197	2200
2931	2	2199	2198	2197	2201
2932	2	2199	2198	2197	2202
2933	1	2200	2197	2198	2203
2934	1	2200	2197	2198	2204
2935	1	2201	2197	2198	2203
2936	1	2201	2197	2198	2204
2937	1	2202	2197	2198	2203
2938	1	2202	2197	2198	2204
2939	4	2203	2198	2199	2205
2940	4	2204	2198	2199	2205
2941	3	2206	2207	2208	2214
2942	2	2208	2207	2206	2209
2943	2	2208	2207	2206	2210
2944	2	2208	2207	2206	2211
2945	1	2209	2206	2207	2212
2946	1	2209	2206	2207	2213
2947	1	2210	2206	2207	2212
2948	1	2210	2206	2207	2213
2949	1	2211	2206	2207	2212
2950	1	2211	2206	2207	2213
2951	4	2212	2207	2208	2214
2952	4	2213	2207	2208	2214
2953	3	2215	2216	2217	2223
2954	2	2217	2216	2215	2218
2955	2	2217	2216	2215	2219
2956	2	2217	2216	2215	2220
2957	1	2218	2215	2216	2221
2958	1	2218	2215	2216	2222
2959	1	2219	2215	2216	2221
2960	1	2219	2215	2216	2222
2961	1	2220	2215	2216	2221
2962	1	2220	2215	2216	2222
2963	4	2221	2216	2217	2223
2964	4	2222	2216	2217	2223
2965	3	2224	2225	2226	2232
2966	2	2226	2225	2224	2227
2967	2	2226	2225	2224	2228
2968	2	2226	2225	2224	2229
2969	1	2227	2224	2225	2230
2970	1	2227	2224	2225	2231
2971	1	2228	2224	2225	2230
2972	1	2228	2224	2225	2231
2973	1	2229	2224	2225	2230
2974	1	2229	2224	2225	2231
2975	4	2230	2225	2226	2232
2976	4	2231	2225	2226	2232
2977	3	2233	2234	2235	2241
2978	2	2235	2234	2233	2236
2979	2	2235	2234	2233	2237
2980	2	2235	2234	2233	2238
2981	1	2236	2233	2234	2239
2982	1	2236	2233	2234	2240
2983	1	2237	2233	2234	2239
2984	1	2237	2233	2234	2240
2985	1	2238	2233	2234	2239
2986	1	2238	2233	2234	2240
2987	4	2239	2234	2235	2241
2988	4	2240	2234	2235	2241
2989	3	2242	2243	2244	2250
2990	2	2244	2243	2242	2245
2991	2	2244	2243	2242	2246
2992	2	2244	2243	2242	2247
2993	1	2245	2242	2243	2248
2994	1	2245	2242	2243	2249
2995	1	2246	2242	2243	2248
2996	1	2246	2242	2243	2249
2997	1	2247	2242	2243	2248
2998	1	2247	2242	2243	2249
2999	4	2248	2243	2244	2250
3000	4	2249	2243	2244	2250
