LAMMPS data file via write_data, version 7 Feb 2024, timestep = 1000000, units = real

2250 atoms
5 atom types
2000 bonds
5 bond types
3250 angles
7 angle types
3000 dihedrals
4 dihedral types

0.5022940364933373 29.497705963506355 xlo xhi
0.5022940364933373 29.497705963506355 ylo yhi
0.5022940364933373 29.497705963506355 zlo zhi

Masses

1 12.01078
2 1.007947
3 15.99943
4 1.007947
5 12.01078

Pair Coeffs # lj/cut/coul/long

1 0.066 3.5
2 0.03 2.5
3 0.17 3.12
4 0 10
5 0.066 3.5

Bond Coeffs # harmonic

1 340 1.09
2 268 1.529
3 340 1.09
4 553 0.945
5 320 1.41

Angle Coeffs # harmonic

1 33 107.8
2 37.5 110.7
3 55 108.5
4 37.5 110.7
5 50 109.5
6 33 107.8
7 35 109.5

Dihedral Coeffs # opls

1 -0 -0 0.3 -0
2 0 -0 0.468 -0
3 -0.356 -0.174 0.492 -0
4 0 -0 0.45 -0

Atoms # full

1899 211 4 0.418 2.0133473260443933 4.516786918487488 3.4315963332934873 0 0 1
119 14 5 0.145 3.1000940329262483 4.420663358216294 0.624662546308935 0 0 0
1961 218 2 0.06 5.5105208071484055 5.561736887351181 8.03662910027574 0 0 0
126 14 4 0.418 3.5481273790354466 3.423465147830672 2.24876653222225 0 0 0
120 14 3 -0.6830000000000001 2.847638635156652 3.968553047920352 1.9914311312101376 0 0 0
146 17 5 0.145 5.905311948087493 1.9013963453916292 1.4343949409668681 0 1 2
1955 218 5 0.145 6.459345469443355 5.605544017361913 7.451352168765992 0 0 0
1956 218 3 -0.6830000000000001 7.188795802052913 4.4317005224315125 7.545619056354723 0 0 0
1960 218 2 0.06 6.190965863013338 5.7829167329422475 6.442514212825614 0 0 0
1893 211 3 -0.6830000000000001 1.3165901807524119 4.769349306550671 4.011212477127772 0 0 1
1738 194 1 -0.18 4.104149108213877 3.3146278086523506 6.030868331644776 0 1 0
1962 218 4 0.418 6.649208525204244 3.6609603579503567 7.349916497103433 0 0 0
319 36 2 0.06 11.524215923091727 7.976254825361613 1.6953992525385637 0 0 1
25 3 2 0.06 4.1647124972897664 6.688742394006338 5.885866859172305 0 0 1
20 3 5 0.145 3.417861330116626 7.488848727713824 6.005551858434807 0 0 1
24 3 2 0.06 2.93070102900596 7.741926862247942 3.897878374244601 0 0 1
121 14 2 0.06 3.399843360527644 6.565216350197905 1.0405122343012674 0 0 0
148 17 2 0.06 6.235863329567012 3.9500065124404347 1.3211007230034548 0 1 2
1739 194 5 0.145 4.963416505189201 1.9945240088708411 6.1516869702900125 0 1 0
147 17 3 -0.6830000000000001 4.67395454584216 1.8972403831863396 2.115739818471554 0 1 2
1744 194 2 0.06 5.720052303352551 1.8295331268047184 5.4120604363161915 0 1 0
1740 194 3 -0.6830000000000001 5.620901542637338 1.8813944388822468 7.368306743092717 0 1 0
1791 199 4 0.418 14.178684542371693 11.715785555420272 7.658117929675518 -1 0 1
1954 218 1 -0.18 7.284266290470405 6.8287074512357995 7.894074300364731 0 0 0
150 17 2 0.06 6.732528327254382 3.3175828865442263 2.9351362464822097 0 1 2
2146 239 2 0.06 0.5994689271889706 8.290458132042772 9.377580843386525 0 1 0
2093 233 2 0.06 11.11073096200478 0.6155783816465892 8.306197290454117 0 1 -1
145 17 1 -0.18 6.761839923087181 3.177813834857816 1.8238837058767159 0 1 2
123 14 2 0.06 4.980376832061185 5.589656558801622 0.878348534759176 0 0 0
1745 194 2 0.06 4.418431069547543 1.1198705175016022 5.892243769192056 0 1 0
589 66 2 0.06 14.904344536651367 5.170350521084546 1.4116385418269704 0 0 0
22 3 2 0.06 4.224800435131036 8.674262106623482 4.363972085052055 0 0 1
19 3 1 -0.18 3.2629519886267166 8.37546678664553 4.755065462446418 0 0 1
1746 194 4 0.418 5.400438185297435 1.0324624580497423 7.77955516785721 0 1 0
1958 218 2 0.06 7.225938509232338 6.837043207443503 8.970277352429601 0 0 0
153 17 4 0.418 4.209436208686643 1.0567075858030393 1.8114364109273637 0 1 2
486 54 4 0.418 0.5995696596645914 13.297949245600575 0.8775939488308415 0 0 0
949 106 2 0.06 14.035443776705813 1.7647267939269935 7.288199211251552 0 0 0
26 3 2 0.06 2.4302378021871287 7.081344568277382 6.241767908574186 0 0 1
1013 113 2 0.06 11.019501034337154 12.156612629249357 1.5838850856312583 1 0 0
23 3 2 0.06 2.5534146953796744 9.169553122842151 4.821295365879893 0 0 1
64 8 1 -0.18 11.000102061657156 1.777960196445702 1.2771196803675455 1 1 1
1741 194 2 0.06 4.041172696695982 3.6625255327408035 4.985805475822947 0 1 0
1784 199 5 0.145 14.332082846380244 12.568422263820208 6.0156277852186095 -1 0 1
1742 194 2 0.06 4.632375165175135 4.053008626583987 6.608029017204175 0 1 0
2095 233 2 0.06 8.780630650212153 1.2634412299917277 9.192751151089407 0 1 -1
1386 154 4 0.418 13.37012019596004 13.752225212996319 8.594187425398458 0 0 -1
53 6 2 0.06 6.458159679803127 9.877628030233964 0.9134819315665521 0 0 0
1083 121 3 -0.6830000000000001 12.554508419111238 1.5992727242933844 4.193464758626096 1 0 0
901 101 1 -0.18 14.563647347804459 7.07453092982053 5.099726260722582 0 0 1
149 17 2 0.06 7.826731874599869 3.217293378528143 1.5190324799761974 0 1 2
908 101 2 0.06 14.92637465165122 9.090074252168792 4.587443459844047 0 0 1
2004 223 2 0.06 14.354277378445296 14.032778263006323 1.1802742448382604 0 -1 0
952 106 2 0.06 14.453441346951507 2.9059348252112587 9.66292308202281 0 0 0
1231 137 2 0.06 11.677338272295163 10.833445447395897 8.938713901578511 -1 0 1
1957 218 2 0.06 8.276814104008228 6.7803998357005355 7.621065099814083 0 0 0
2097 233 4 0.418 8.08518487927963 1.8465706572542664 7.274778508765331 0 1 -1
1898 211 2 0.06 1.1792457871694877 2.7837933585209282 3.9862747383024377 0 0 1
67 8 2 0.06 11.729500487118099 2.595011487736828 1.0743115290634335 1 1 1
905 101 2 0.06 14.17676375097423 6.1389420506670005 4.622512850995469 0 0 1
2091 233 3 -0.6830000000000001 8.83685279098083 1.279343935244619 7.23060534107239 0 1 -1
1995 222 2 0.06 11.006312621830004 4.03043206442942 2.996843835113976 0 1 0
1994 222 2 0.06 9.921153444951043 5.479867233807006 3.428914103293045 0 1 0
1998 222 4 0.418 10.036999031663482 2.351328673808559 6.089903224929596 0 1 0
1992 222 3 -0.6830000000000001 10.509226075541788 2.777921780067993 5.381571947785363 0 1 0
1991 222 5 0.145 9.730850712621145 3.778102252265283 4.761242427640402 0 1 0
1089 121 4 0.418 11.78010827256128 1.9705585824453464 4.581648953272952 1 0 0
1990 222 1 -0.18 10.554877847170683 4.66515634606655 3.8150427381916256 0 1 0
1997 222 2 0.06 9.358009461947887 4.412797491793414 5.57268758585874 0 1 0
2212 246 2 0.06 11.899230846844256 5.22317605414935 8.797247429462951 0 0 0
2214 246 4 0.418 11.579087000550325 2.7527853208834294 8.40938278749216 0 0 0
1996 222 2 0.06 8.889670056533264 3.293952747053652 4.253719206560911 0 1 0
1087 121 2 0.06 13.142227692346589 3.119249282314123 3.0024034922871206 1 0 0
902 101 5 0.145 14.71556031976438 8.15106722663825 4.038438102942672 0 0 1
1993 222 2 0.06 11.397354581691435 5.208302968560239 4.349476364604146 0 1 0
1088 121 2 0.06 13.494231372451177 3.5213621130303725 4.696569521003791 1 0 0
1033 115 2 0.06 1.616611920436147 11.24180525466316 9.889799477073066 0 1 0
2149 239 2 0.06 1.5015737229243946 5.960389528587208 9.19489851299539 0 1 0
1131 126 2 0.06 3.2808401067098587 1.6536667949374704 8.927352297567904 0 1 0
1081 121 1 -0.18 14.901846573196028 2.150046251900762 3.8359389699858912 1 0 0
1011 113 3 -0.6830000000000001 13.583279226930696 10.144251561598193 1.173716860183385 1 0 0
1082 121 5 0.145 13.45565637628183 2.6977392873947332 3.9531383543324234 1 0 0
321 36 2 0.06 10.462976882161971 6.543013150880945 1.267243531179742 0 0 1
951 106 2 0.06 13.852681636730544 3.5260176491486055 7.691529765031644 0 0 0
2036 227 5 0.145 10.563247725533657 9.371847816133016 5.271460466803261 -1 0 0
946 106 1 -0.18 14.555369231909252 2.6832516325925764 7.519555392986101 0 0 0
1616 180 2 0.06 7.73604511715481 11.89833516451268 8.868717202739793 2 0 0
2147 239 2 0.06 1.9182674177488235 8.275735746717501 8.423107845470575 0 1 0
1229 137 2 0.06 10.256729334597079 9.0105478908014 9.284652676974213 -1 0 1
909 101 4 0.418 13.44634404990895 8.813810729392628 2.679813020358418 0 0 1
1086 121 2 0.06 14.875260696932246 1.5273787840972306 3.0112760515005506 1 0 0
2207 246 5 0.145 10.992213307039204 4.651905416824419 8.785476663976558 0 0 0
1379 154 5 0.145 11.690768110589579 13.757741818915108 9.364199606087558 0 0 -1
1959 218 2 0.06 6.736269693350259 7.60984228524416 7.454857976339846 0 0 0
1233 137 4 0.418 13.979142981011679 9.977467560067552 9.250339342232262 -1 0 1
1619 180 2 0.06 6.938483235880659 9.83402847119549 9.88917331988665 2 0 0
2208 246 3 -0.6830000000000001 11.200725574372044 3.299001200077512 9.138311551849368 0 0 0
1785 199 3 -0.6830000000000001 13.704483071413092 12.431043530926816 7.26475184347001 -1 0 1
906 101 2 0.06 13.821878554854981 7.332869816925809 5.905301952146853 0 0 1
1612 180 1 -0.18 8.11515924463036 11.616696944104309 9.791694606737572 2 0 0
485 54 2 0.06 2.5220392004821326 13.63686496283962 0.7911962952790663 0 0 0
1743 194 2 0.06 3.1070953539971775 3.124614000538397 6.372528566282251 0 1 0
52 6 2 0.06 5.53668540072289 11.208528885133425 1.2732852891127773 0 0 0
482 54 2 0.06 4.023052857169288 12.418912867044737 2.6071126382126812 0 0 0
1029 115 3 -0.6830000000000001 1.895124932153167 12.299939335338056 8.272595884239816 0 1 0
781 87 2 0.06 1.1487905836890024 11.089865443252162 4.739242318165346 0 0 0
27 3 4 0.418 3.904641193372109 7.862292091212921 7.92002525126966 0 0 1
478 54 1 -0.18 2.979087692848281 12.49182327412895 2.540592898701487 0 0 0
2043 227 4 0.418 11.83396590609658 8.05354944057743 4.635863773823447 -1 0 0
481 54 2 0.06 2.6122017928708368 13.185194121810534 3.2426927598670297 0 0 0
50 6 2 0.06 7.946988397486064 10.615501581584073 2.8968823278683655 0 0 0
21 3 3 -0.6830000000000001 3.8774313078592346 8.318689932470154 7.0988846556105525 0 0 1
46 6 1 -0.18 6.9804370824149995 10.944694336396653 2.7551651076553174 0 0 0
483 54 2 0.06 2.58179591259384 11.549467829855871 2.9175253650593813 0 0 0
51 6 2 0.06 6.218232288580348 10.401925244082948 3.4526668076812697 0 0 0
49 6 2 0.06 6.8877614265170735 11.992434417593008 3.064152255007909 0 0 0
1035 115 4 0.418 2.4871267166873565 11.738005817552256 7.744377059180474 0 1 0
1371 153 3 -0.6830000000000001 3.9381197424543566 10.839605659957657 7.229258851230477 0 0 1
1373 153 2 0.06 5.592272493257138 13.30971346557261 5.784067562502751 0 0 1
1376 153 2 0.06 4.31065576356904 11.233230806840643 5.316596114371016 0 0 1
1375 153 2 0.06 5.6752283464656825 10.877921991378656 6.217271017945855 0 0 1
1374 153 2 0.06 5.04528536915855 13.128771457654539 7.446103366286373 0 0 1
1370 153 5 0.145 4.75044287789338 11.430985810708929 6.245337434818958 0 0 1
1369 153 1 -0.18 4.820858227705827 12.889151771264366 6.4278159907341115 0 0 1
2037 227 3 -0.6830000000000001 11.207527288224295 8.108944688770812 5.336759017998145 -1 0 0
1377 153 4 0.418 3.8387348861224693 9.851703438578662 7.063965265623116 0 0 1
1372 153 2 0.06 3.857525637692307 13.335524331190438 6.140779468065985 0 0 1
1225 137 1 -0.18 11.036927594973843 9.271517836698607 10.0249080988398 -1 0 1
480 54 3 -0.6830000000000001 0.9399159422964105 12.555244360123181 1.3917403260354595 0 0 0
118 14 1 -0.18 3.9231823367001226 5.728524059674576 0.556923285779755 0 0 0
1384 154 2 0.06 11.15551505622934 13.712941027335258 8.436784655739661 0 0 -1
68 8 2 0.06 11.52148704446676 0.8380797358207774 1.3799717945099224 1 1 1
1226 137 5 0.145 12.119266170308245 9.838854407634669 9.15105425428159 -1 0 1
2038 227 2 0.06 8.80569143716221 8.660952522738025 6.1656936642794316 -1 0 0
1028 115 5 0.145 2.1680353934574583 12.104467113844915 9.64199876502631 0 1 0
1034 115 2 0.06 3.2359847082315136 11.831079939302448 9.870799920027453 0 1 0
479 54 5 0.145 2.3649668858886086 12.652211670935477 1.1875942199161518 0 0 0
1617 180 2 0.06 8.994255526613983 11.017373287475623 9.571543491021014 2 0 0
1790 199 2 0.06 13.830091387126316 11.853457554220396 5.335540117472685 -1 0 1
151 17 2 0.06 6.426327221879253 0.9454367902341343 1.6994612976274386 0 1 2
1380 154 3 -0.6830000000000001 12.917999275975454 14.366095528982349 9.14480525848715 0 0 -1
2148 239 2 0.06 2.1476066106079266 8.803921768087752 10.135243775786329 0 1 0
1009 113 1 -0.18 11.892085055242482 11.585568293792383 1.9450365982757467 1 0 0
1385 154 2 0.06 11.800457921897351 12.758906146172514 9.674023911557137 0 0 -1
1012 113 2 0.06 11.532070049016827 10.866978603319916 2.648603010989443 1 0 0
1227 137 3 -0.6830000000000001 13.28705206332666 9.89373207283636 9.90809724874044 -1 0 1
1786 199 2 0.06 14.693675738235601 14.719194850574292 5.81766721809696 -1 0 1
69 8 2 0.06 10.49506291445944 2.155903736764953 2.182570092567304 1 1 1
316 36 1 -0.18 11.428741655085677 7.020536407410594 1.2211419249358442 0 0 1
1014 113 2 0.06 12.544092457578211 12.293619543033017 2.4550192155205823 1 0 0
2035 227 1 -0.18 9.391788877116234 9.505215817235216 6.275478273162494 -1 0 0
2041 227 2 0.06 11.16788575757245 10.262946468795953 5.490424654846983 -1 0 0
1788 199 2 0.06 14.168974447569742 13.84972000283683 4.352104543005039 -1 0 1
47 6 5 0.145 6.529314611721846 10.868810393557485 1.3187123109667962 0 0 0
1787 199 2 0.06 13.016790714519031 14.22357980482291 5.646174205772447 -1 0 1
1892 211 5 0.145 0.5234081107221042 3.6644721867122296 4.248771237856618 0 0 1
1010 113 5 0.145 12.484848843191205 10.85987539311493 0.704516864673502 1 0 0
320 36 2 0.06 12.133410688401923 6.300869546572381 1.7087931901398987 0 0 1
2039 227 2 0.06 8.759745003091856 10.314722249513776 6.128585651185177 -1 0 0
2040 227 2 0.06 9.635976256309197 9.481972902919164 7.3315009085653955 -1 0 0
1232 137 2 0.06 12.299950597747909 9.282813896061034 8.210204731255487 -1 0 1
2042 227 2 0.06 10.337549514085824 9.397515522701015 4.211043318600451 -1 0 0
903 101 3 -0.6830000000000001 13.431538551277999 8.291906447101141 3.4469434303030484 0 0 1
1126 126 1 -0.18 3.277095188674708 0.8782739244265817 9.798492467095581 0 1 0
1895 211 2 0.06 0.9834547247201599 3.017269072791806 6.267443143707911 0 0 1
1783 199 1 -0.18 13.999186772458186 13.937783752978124 5.465956379819134 -1 0 1
2213 246 2 0.06 10.588795362227055 4.786527608539143 7.837058294141375 0 0 0
2145 239 3 -0.6830000000000001 3.53844699174071 6.4597657892651394 9.68826203857087 0 1 0
751 84 2 0.06 1.1515459951284086 1.5124147390192013 1.3303656884866166 1 1 0
2143 239 1 -0.18 1.649421307748624 8.090574939014463 9.482241099446357 0 1 0
2144 239 5 0.145 2.0733080451398105 6.674938357634409 9.845204605414336 0 1 0
748 84 1 -0.18 0.9053693716659258 0.6875398690602956 0.6452527304729706 1 1 0
2206 246 1 -0.18 9.975120061195392 5.241843079297566 9.826840218934066 0 0 0
2210 246 2 0.06 9.747765228871202 6.266351689464059 9.58705354510802 0 0 0
2209 246 2 0.06 9.040196600797985 4.762938754461113 9.989148534216332 0 0 0
1032 115 2 0.06 2.394614475761756 14.099178010365872 10.167418484889165 0 1 0
1016 113 2 0.06 11.814856507696192 10.009873549023547 0.5276643257165148 1 0 0
1648 184 1 -0.18 4.146574885920856 2.691779395053904 15.035492871296105 0 1 0
432 48 4 0.418 3.728619061243389 3.938005372841324 12.527575174689867 1 1 0
1650 184 3 -0.6830000000000001 4.15497138525629 1.0636118807450403 13.097758028761344 0 1 0
426 48 3 -0.6830000000000001 4.22271528525839 4.67169340758664 12.323083918706903 1 1 0
1649 184 5 0.145 4.752877079357039 1.4169913026303718 14.346462647942616 0 1 0
1656 184 4 0.418 4.791275819162038 0.549163907329596 12.603648462454743 0 1 0
1653 184 2 0.06 3.1953976423983885 2.4126570585178584 15.44592903096432 0 1 0
1964 219 5 0.145 6.937016886587374 7.883167872088386 18.221042737376457 0 1 0
1212 135 2 0.06 14.27182455677323 3.371309668836942 14.41660827677631 -1 0 -1
1652 184 2 0.06 4.866170903618203 3.033755530279856 15.797207154569184 0 1 0
1651 184 2 0.06 4.068999805055249 3.509654439374546 14.33020791905668 0 1 0
1655 184 2 0.06 5.776513936612381 1.6861748097612679 14.10509392267932 0 1 0
1963 219 1 -0.18 5.451939599099997 7.38913850266254 18.294689818088216 0 1 0
1381 154 2 0.06 11.660133866571565 14.798577965331235 11.212851503929478 0 0 -1
1967 219 2 0.06 5.40480979195322 6.39817375988162 18.762492039920893 0 1 0
1654 184 2 0.06 4.809269186304145 0.5345222048951351 15.03324524292074 0 1 0
1528 170 2 0.06 14.29074796999958 13.813125614531844 17.629819325038447 0 1 0
707 79 2 0.06 13.403388303465668 4.639105908274396 11.567685856175258 -1 0 0
1368 152 4 0.418 0.916868343357939 5.440912888029515 18.774869537142003 1 1 -1
310 35 2 0.06 8.518541873418833 2.17082544381097 16.260234422843027 1 1 0
1362 152 3 -0.6830000000000001 1.852725424838355 5.250543108907958 18.59969200034014 1 1 -1
887 99 2 0.06 2.504099092312323 12.206430448678052 17.62545466951733 0 0 0
709 79 2 0.06 13.80462926157097 7.217509957906713 12.302188578348694 -1 0 0
915 102 2 0.06 1.2353258449558455 1.8052200845808422 18.511690569077246 0 0 0
424 48 1 -0.18 6.501555346833108 5.318300577182103 12.000955242534264 1 1 0
1194 133 2 0.06 4.261371422694316 14.589615704476989 12.87666502597065 0 1 0
1228 137 2 0.06 11.251618241426874 8.332718915609975 10.613913369568605 -1 0 1
1361 152 5 0.145 1.793135036271207 4.6985402824704146 17.32179870400411 1 1 -1
1129 126 2 0.06 3.8845526147637437 1.2897676574351016 10.612682950351857 0 1 0
910 102 1 -0.18 0.9616657288787127 1.0527708805873157 17.749532269984698 0 0 0
2151 239 4 0.418 3.7878243795394226 5.822036618514373 10.361566767500053 0 1 0
1378 154 1 -0.18 11.05686530123662 14.717191715074751 10.294958196242025 0 0 -1
2050 228 2 0.06 12.757786687437603 2.824713222537802 19.69799785678846 0 0 0
927 103 4 0.418 10.916813802792127 11.788720597338383 14.52223407632435 1 0 0
913 102 2 0.06 1.0534995308963073 1.5196426411276043 16.808353181855757 0 0 0
1965 219 3 -0.6830000000000001 7.497968284268285 7.747598914921046 19.478288954920153 0 1 0
427 48 2 0.06 7.472035954065161 4.946246162400288 11.707317622170887 1 1 0
1618 180 2 0.06 7.508501492672854 10.359091623160813 11.436336811635535 2 0 0
1059 118 2 0.06 4.706378084986808 7.433307561104011 13.494772971160351 1 1 0
2150 239 2 0.06 1.8039510455430938 6.515650437631843 10.878290553913173 0 1 0
430 48 2 0.06 5.650642606445027 3.517806287949174 12.98245170242596 1 1 0
1221 136 2 0.06 10.033946264261605 2.316315711508032 13.987861148580084 0 0 -1
2132 237 2 0.06 4.368894225573927 4.279591636904826 18.912831049619413 0 0 0
1364 152 2 0.06 2.288186075919796 5.142703384251541 15.248922789812031 1 1 -1
921 103 3 -0.6830000000000001 10.323170279475395 11.019026660027421 14.641445006467926 1 0 0
1189 133 1 -0.18 5.203084953080221 14.749332521738562 12.338439751634949 0 1 0
425 48 5 0.145 5.512855542595372 4.156429380005752 12.14716856480522 1 1 0
1365 152 2 0.06 3.7045537489617915 5.555958459557861 16.497214985148858 1 1 -1
431 48 2 0.06 5.399251125024311 3.5675661355325374 11.187081176867572 1 1 0
1360 152 1 -0.18 2.6139747474833417 5.487693762274151 16.280052854542753 1 1 -1
711 79 4 0.418 14.353964975627667 8.483095610344897 10.467153242567576 -1 0 0
1220 136 2 0.06 11.030541203319268 0.8614984235283611 13.998734236220105 0 0 -1
1966 219 2 0.06 4.803265870633444 7.967395773222501 18.930796477613164 0 1 0
2133 237 4 0.418 6.621853256932974 4.651700644365133 19.434032121410333 0 0 0
1367 152 2 0.06 0.709744380751946 4.745073712196713 16.96754415234016 1 1 -1
307 35 1 -0.18 7.957029018874523 1.30755511319015 16.573170667562778 1 1 0
710 79 2 0.06 12.727956406276334 6.6487469681029605 11.013730674554768 -1 0 0
657 73 4 0.418 14.564479319637757 10.142487670199467 16.51880273468614 0 0 0
1223 136 2 0.06 11.763491919433141 3.5301680748109336 12.512399342592868 0 0 -1
1759 196 2 0.06 12.085079372690071 14.775717491939442 18.51996325511702 1 1 0
1879 209 2 0.06 7.457678053761663 0.9458696206894995 10.84685647563277 0 0 -1
1971 219 4 0.418 8.429679280844073 7.768811983064391 19.296723951108802 0 1 0
1661 185 2 0.06 9.71292371630423 5.205666556515353 13.95295426628997 0 0 0
1663 185 2 0.06 9.026895407066375 7.35843827980122 14.388294638690052 0 0 0
1662 185 2 0.06 10.169538363360406 5.518975790275344 15.524118870301448 0 0 0
1657 185 1 -0.18 10.409547047477654 5.800421481569187 14.534727976656399 0 0 0
1660 185 2 0.06 11.482256043111875 5.39323986575086 14.396292571780405 0 0 0
2045 228 5 0.145 13.016735296723033 3.169845477687386 18.685771837548224 0 0 0
1222 136 2 0.06 12.748011926378819 2.2018658618569824 12.48131104950883 0 0 -1
2049 228 2 0.06 11.078731336851238 3.1106888153528476 17.589992530070205 0 0 0
1217 136 5 0.145 11.697287961896947 2.394398827965979 12.469515685099728 0 0 -1
2051 228 2 0.06 13.016691135175591 4.315123669098675 18.79088137893995 0 0 0
1664 185 2 0.06 10.459758882566138 7.7315281966863125 13.332206278642982 0 0 0
1658 185 5 0.145 10.120756347418771 7.24436370243608 14.239243158885413 0 0 0
2044 228 1 -0.18 11.986872209283295 2.546177349531685 17.748555713341872 0 0 0
713 80 5 0.145 10.653841171049484 9.583001104857237 18.08844559283537 -1 0 1
2048 228 2 0.06 12.377832370629834 2.6415816938743046 16.755443211361637 0 0 0
429 48 2 0.06 5.974497168733712 5.942819505266489 11.2178084685457 1 1 0
312 35 2 0.06 7.344955428181181 0.9981122018326803 15.680421214349604 1 1 0
1224 136 4 0.418 11.083318562420244 2.4981716777968863 10.666154868870377 0 0 -1
1880 209 2 0.06 7.571780125996221 1.2198369690618032 12.56955335501926 0 0 -1
1824 203 2 0.06 1.7214289627850206 0.8067091281652399 13.48535067268834 0 0 0
705 79 3 -0.6830000000000001 14.619035172286381 7.528932040309925 10.470156179800952 -1 0 0
1366 152 2 0.06 2.092752699737251 3.7377388441284602 17.540086666833027 1 1 -1
1218 136 3 -0.6830000000000001 11.015777170042707 1.8526780893933326 11.36245998165976 0 0 -1
2047 228 2 0.06 11.685286274442834 1.5075788190861166 17.978878254450848 0 0 0
2211 246 2 0.06 10.395579021014246 5.321017025173832 10.802529065738682 0 0 0
2046 228 3 -0.6830000000000001 14.284281734478776 2.5790760489717024 18.30226226316583 0 0 0
1216 136 1 -0.18 11.069997921075341 1.9845351054041358 13.8806465564393 0 0 -1
653 73 2 0.06 14.503046703291208 6.5529871782286415 16.204920617414075 0 0 0
988 110 2 0.06 13.052075333087146 7.201965084455719 18.99641338879284 0 0 0
704 79 5 0.145 13.793947974164688 6.750170146303485 11.343417967103953 -1 0 0
1659 185 3 -0.6830000000000001 10.70651803253759 8.092238424859598 15.232780442099017 0 0 0
1230 137 2 0.06 10.606423535626718 10.05780635367967 10.569117892539213 -1 0 1
703 79 1 -0.18 14.297182463463836 5.3050666035606975 11.292678902049937 -1 0 0
1530 170 4 0.418 13.628666599912641 12.486397453717384 16.019155521316158 0 1 0
1613 180 5 0.145 7.1243113781594 10.65953449146218 10.493390420159614 2 0 0
1594 178 1 -0.18 12.73234405764644 12.604923347962128 12.810464613192176 0 0 0
1665 185 4 0.418 10.699806607821994 8.977530557553196 14.954341112212152 0 0 0
1969 219 2 0.06 6.9259790816609375 8.932122838772564 17.919166084042324 0 1 0
983 110 5 0.145 13.989312127892966 7.212792648713781 19.56100140602507 0 0 0
1363 152 2 0.06 2.1465659954050293 6.480007029236231 16.219302462203437 1 1 -1
1970 219 2 0.06 7.473804390603793 7.247479423334373 17.516426306810267 0 1 0
718 80 2 0.06 11.327055835351542 10.194969985375648 17.531320219374884 -1 0 1
889 99 2 0.06 2.994411924794216 13.256414780970106 15.315775456503903 0 0 0
884 99 5 0.145 3.220906054312648 12.24462460363263 15.619132785134461 0 0 0
1524 170 3 -0.6830000000000001 14.297315494594953 12.12903068131028 16.560110145487236 0 1 0
1196 133 2 0.06 7.168381349948488 14.04643103261094 12.49800287784006 0 1 0
890 99 2 0.06 3.1876313284602973 11.675315004099774 14.753302696242447 0 0 0
888 99 2 0.06 2.2322125477778427 10.633600960844491 16.783566121984478 0 0 0
656 73 2 0.06 14.848025503202734 9.221152264116935 14.6693711577088 0 0 0
568 64 1 -0.18 7.327852485916949 12.345496504027016 19.4497552284517 1 1 0
885 99 3 -0.6830000000000001 4.61957620574086 12.09779143284476 15.875507954002082 0 0 0
891 99 4 0.418 4.9493463351532725 12.5464222487785 15.0733701627472 0 0 0
575 64 2 0.06 5.944012708530352 13.384058950454435 17.952272307593773 1 1 0
1060 118 2 0.06 3.7393683757540557 10.11644522889826 12.323577019030932 1 1 0
1061 118 2 0.06 2.7841730967353517 8.744191153049837 12.253661003487904 1 1 0
1062 118 4 0.418 4.328719629107026 7.957625010332034 10.819184481934679 1 1 0
1056 118 3 -0.6830000000000001 4.528337556402898 8.80642181671126 11.154970557231076 1 1 0
1055 118 5 0.145 3.8144109344463364 9.044013271424378 12.356656617881951 1 1 0
1054 118 1 -0.18 4.5952048884863625 8.52236076035839 13.618985762839857 1 1 0
1057 118 2 0.06 3.9423226337811696 8.652685020386663 14.513810253756445 1 1 0
1058 118 2 0.06 5.57361262343859 8.954263465955009 13.945490623470931 1 1 0
1620 180 4 0.418 5.251930000320231 10.560171327564047 10.565102534311867 2 0 0
1614 180 3 -0.6830000000000001 5.876906067750779 11.267596337754764 10.790288739723824 2 0 0
1197 133 4 0.418 5.888166496851339 12.304883361336586 12.239496814512881 0 1 0
570 64 3 -0.6830000000000001 4.971391507643078 11.966757691504363 18.884517023088918 1 1 0
576 64 4 0.418 4.600450804183151 11.598491637736418 18.09251036229123 1 1 0
1191 133 3 -0.6830000000000001 5.904494737953585 12.648278313107419 13.160238572958162 0 1 0
1192 133 2 0.06 4.949862304858513 14.36506588923974 11.289465254748807 0 1 0
2127 237 3 -0.6830000000000001 6.330372511711287 3.7031351449915837 19.53702584637948 0 0 0
569 64 5 0.145 6.256491829847905 12.400238567060839 18.390051594751085 1 1 0
886 99 2 0.06 1.2438122038193367 12.108588500334692 16.401698293761832 0 0 0
1782 198 4 0.418 4.258064413717965 14.244048651663112 19.38385425650734 0 -1 0
574 64 2 0.06 6.582489601475737 11.689690374098808 17.590132939947324 1 1 0
922 103 2 0.06 7.830985818875146 9.731573589075673 14.90330154110352 1 0 0
1031 115 2 0.06 0.7901699091827274 13.443465775388141 10.613337657544147 0 1 0
1030 115 2 0.06 2.144796254859922 13.141251747016677 11.523842834585311 0 1 0
1027 115 1 -0.18 1.8466761658317152 13.266032191831984 10.534274790353098 0 1 0
311 35 2 0.06 7.307700519386846 1.6192913391415031 17.369999586719963 1 1 0
2126 237 5 0.145 4.883407743635867 3.828619147317021 19.812451433723396 0 0 0
1190 133 5 0.145 6.2401853198226505 14.020652413340581 13.037943891363305 0 1 0
428 48 2 0.06 6.73369880281992 5.836548183304017 12.991871141894409 1 1 0
1598 178 2 0.06 11.753849623051075 12.345609255078342 12.468492979430408 0 0 0
572 64 2 0.06 8.26470363671087 12.425794838466656 18.86774629567133 1 1 0
1602 178 4 0.418 12.075208735554181 13.97804628808822 15.48848630951517 0 0 0
926 103 2 0.06 8.728555332136512 11.057869758451028 13.323304453327802 1 0 0
883 99 1 -0.18 2.2374514633991236 11.726641823914997 16.66820484104585 0 0 0
1615 180 2 0.06 8.401650157748158 12.50380819983274 10.416401981976966 2 0 0
1195 133 2 0.06 6.477156520459326 14.40737761463336 13.972797097855482 0 1 0
1529 170 2 0.06 13.32094732120944 12.489105123607708 18.32703157874721 0 1 0
1599 178 2 0.06 13.085675517509623 11.683266756428273 13.280603912421707 0 0 0
652 73 2 0.06 14.851573798912865 6.475128667452225 14.592690300442625 0 0 0
712 80 1 -0.18 10.395538991611307 9.934827855367415 19.568018466041885 -1 0 1
1968 219 2 0.06 5.075896609928259 7.38082748076181 17.29291148502869 0 1 0
1595 178 5 0.145 12.68071664366778 13.74233434924195 13.79726232883135 0 0 0
919 103 1 -0.18 7.9260785828681035 10.737550584557406 15.229201787849554 1 0 0
649 73 1 -0.18 14.981488262870663 7.165007353598745 15.441416052715644 0 0 0
920 103 5 0.145 9.004847066115772 11.424711905464102 14.347678845138903 1 0 0
720 80 4 0.418 11.116765869114559 8.008815162309588 17.136439674136035 -1 0 1
714 80 3 -0.6830000000000001 10.918427307024928 8.19585750898609 18.014619318808315 -1 0 1
1596 178 3 -0.6830000000000001 12.187903886313858 13.214622194626907 14.953732365903633 0 0 0
1219 136 2 0.06 11.59721198645696 2.584729407866286 14.594537396561758 0 0 -1
655 73 2 0.06 13.36063648147036 8.661962607693779 15.154570038099168 0 0 0
651 73 3 -0.6830000000000001 14.570247174913359 9.166397440254366 16.71880070314206 0 0 0
719 80 2 0.06 9.709309421922791 9.787393026112433 17.606436502480193 -1 0 1
1601 178 2 0.06 13.629005999289102 14.149663524885586 14.109159957577715 0 0 0
1523 170 5 0.145 14.213081034602954 12.75339537129635 17.79150541243773 0 1 0
650 73 5 0.145 14.434196295509906 8.600256696911748 15.434553489277041 0 0 0
1597 178 2 0.06 13.314500637553765 12.905147432356182 11.911667150743945 0 0 0
923 103 2 0.06 6.949111750919736 11.125413875569413 14.958192241202337 1 0 0
925 103 2 0.06 8.818803707932366 12.52198423238359 14.377587401725656 1 0 0
924 103 2 0.06 8.143746332716299 10.835748752935451 16.283233973741808 1 0 0
1600 178 2 0.06 12.127013483915897 14.567427080151514 13.400300494756108 0 0 0
211 24 2 0.06 13.543373672609162 0.7071960573579199 15.805236871339114 1 1 0
1259 140 2 0.06 8.13486586323166 0.7279195730138477 19.5551410424602 0 0 0
2130 237 2 0.06 4.684551581848402 1.840212964515791 19.276800782350143 0 0 0
716 80 2 0.06 10.059235653193147 10.949775885416987 19.68865507423233 -1 0 1
706 79 2 0.06 14.633581376711431 5.101473505210815 10.271391743555604 -1 0 0
1382 154 2 0.06 10.031739602458497 14.51813357560905 10.61563406071506 0 0 -1
2052 228 4 0.418 14.95354769659542 2.954160637396214 18.865408045786374 0 0 0
1130 126 2 0.06 2.3220576084410895 0.766309986050902 10.224863493828343 0 1 0
273 31 3 -0.6830000000000001 4.600791735549542 5.431529819311076 25.641403653034168 1 0 -1
279 31 4 0.418 4.6739919042409985 5.89257697323404 24.830059297596378 1 0 -1
840 94 3 -0.6830000000000001 4.106768440886433 6.442526785565441 23.009425786965778 1 0 -1
846 94 4 0.418 4.543939570181322 5.955836358771498 22.3205985621821 1 0 -1
272 31 5 0.145 5.1319562680373485 4.1033160793511065 25.435274611089618 1 0 -1
2129 237 2 0.06 4.7159916934955115 2.078907718830169 21.040623961825396 0 0 0
2125 237 1 -0.18 4.385771315172269 2.481199786689885 20.115620886184807 0 0 0
278 31 2 0.06 5.7365571807200135 3.892260830718787 26.38008559201637 1 0 -1
271 31 1 -0.18 3.9145316339047005 3.108988522601491 25.272964934189154 1 0 -1
277 31 2 0.06 5.717537113100551 4.1923525244653135 24.558644487642503 1 0 -1
1498 167 2 0.06 1.7380358272008118 4.886767287407978 26.525770873824676 0 0 -1
839 94 5 0.145 2.796021635795511 6.905155522481642 22.56129993249388 1 0 -1
838 94 1 -0.18 1.823199548745101 5.689239168670015 22.548376967029427 1 0 -1
844 94 2 0.06 2.4081252285060337 7.695779144016445 23.204820607912367 1 0 -1
843 94 2 0.06 1.9285966985451992 4.970682522725483 21.773383131524753 1 0 -1
845 94 2 0.06 2.8864473656662093 7.337867078341654 21.549168954568444 1 0 -1
2167 241 2 0.06 7.065353033915024 7.277862478010239 26.31993932580192 0 1 0
2162 241 5 0.145 7.381426027499251 6.686611599811769 27.163480467743653 0 1 0
2168 241 2 0.06 6.733515533848222 5.793340705976752 27.232920844296856 0 1 0
276 31 2 0.06 3.5231651522228904 2.870577297221573 26.26699242707393 1 0 -1
1156 129 2 0.06 9.481950762184177 8.140023706846833 25.227222903184682 1 0 0
469 53 1 -0.18 1.7644025550953004 1.9483618091417116 23.0180627081751 0 0 0
987 110 2 0.06 14.85097005615604 8.372434736461184 21.285822810921914 0 0 0
474 53 2 0.06 2.4576381854537734 1.1793335560663634 23.390670569785712 0 0 0
2128 237 2 0.06 3.3075577618032925 2.4917862814850302 20.07300698727112 0 0 0
1978 220 2 0.06 14.164510700807007 14.548925024864069 20.12110132510623 0 -1 0
1099 123 1 -0.18 1.2971571405678342 9.623814542918542 21.064687679895627 1 0 1
274 31 2 0.06 4.414363908243271 2.144449836453573 24.980145412729364 1 0 -1
2003 223 2 0.06 13.963876546593134 14.043398635420397 28.599072495081636 0 -1 -1
2161 241 1 -0.18 7.281526523571104 7.5188786152722065 28.434015319891934 0 1 0
1260 140 4 0.418 6.670305305996433 2.0625647730697594 20.696066183323147 0 0 0
717 80 2 0.06 11.365025635732623 9.945544805045504 20.107267862976926 -1 0 1
842 94 2 0.06 1.7627008787004197 5.0901202699872545 23.51688568182133 1 0 -1
841 94 2 0.06 0.8402388209622034 6.130183004302755 22.44346591650544 1 0 -1
235 27 1 -0.18 14.283102474505336 1.5818830568667488 26.73303727732408 0 1 -2
1004 112 2 0.06 14.329915773896797 1.3485701127959295 21.001207259282545 0 1 -1
275 31 2 0.06 3.236081088954556 3.289846711119498 24.495304100040023 1 0 -1
17 2 2 0.06 2.445114908154921 8.78396378986389 28.86035159121404 0 1 -1
1157 129 2 0.06 8.662982882599291 9.082560764173273 24.09411772691621 1 0 0
2165 241 2 0.06 8.099824609986893 8.190073380511144 28.513979395874543 0 1 0
985 110 2 0.06 13.085986195354181 8.397562776548007 21.13618974587679 0 0 0
1107 123 4 0.418 3.77444792431534 11.342070591176617 20.518398908764695 1 0 1
1569 175 3 -0.6830000000000001 14.49066951463082 9.328342910512294 27.259560783423574 -1 0 0
1160 129 2 0.06 7.759071722977449 6.890965655127581 24.142145248057 1 0 0
1153 129 1 -0.18 9.368559583989914 8.267378793599004 24.171091412411137 1 0 0
240 27 2 0.06 14.234624664007798 1.4088116268403392 27.748102512501553 0 1 -2
1158 129 2 0.06 10.262255821175446 8.462818483384961 23.596951446227997 1 0 0
70 8 2 0.06 10.52959055341035 1.2725533074138353 28.221766854181375 1 1 0
1155 129 3 -0.6830000000000001 9.552148586381374 5.842099955187183 23.933281897082686 1 0 0
1254 140 3 -0.6830000000000001 7.2716970732902375 1.511455496146792 21.192394230797873 0 0 0
544 61 2 0.06 4.165005715562169 14.253641414498755 27.963410674194904 0 0 0
1154 129 5 0.145 8.724925309386448 6.992555158364805 23.70708675321822 1 0 0
1159 129 2 0.06 8.527911939827774 7.100833069388416 22.639999817211837 1 0 0
541 61 1 -0.18 4.8319381639460435 13.453172940194369 27.54785846442841 0 0 0
237 27 3 -0.6830000000000001 13.714076028999271 3.2931817341049694 25.15196426553336 0 1 -2
1161 129 4 0.418 9.388451354569336 5.1628234064830085 23.317417848500902 1 0 0
2163 241 3 -0.6830000000000001 8.70462778850074 6.422242366980228 27.152963723646295 0 1 0
801 89 4 0.418 8.688889102982605 2.65462720512151 22.02606227899362 -1 0 -1
798 89 2 0.06 11.130947514257096 5.408728247853958 21.699736691770305 -1 0 -1
795 89 3 -0.6830000000000001 9.251852518451015 3.400644046607732 22.21960313182275 -1 0 -1
800 89 2 0.06 9.960107034269887 2.653573121789384 20.498607294658754 -1 0 -1
1494 166 4 0.418 10.92102121376899 5.497491666413481 25.04841139190239 0 1 -1
794 89 5 0.145 10.356458486560893 3.338008554929861 21.302227691666545 -1 0 -1
799 89 2 0.06 11.16121375072761 2.8377872115125125 21.908868910592027 -1 0 -1
590 66 2 0.06 14.935797809321079 5.293506175063159 28.669823043452467 0 0 -1
793 89 1 -0.18 10.639419281560253 4.79372960063059 20.936357201086636 -1 0 -1
2169 241 4 0.418 8.97650634692974 5.867992587039961 26.481382454316176 0 1 0
473 53 2 0.06 2.3178325708109564 2.8063574906828426 22.53141834149755 0 0 0
1487 166 5 0.145 12.500196030905817 6.528755157846766 25.074094323684484 0 1 -1
1492 166 2 0.06 11.887313711825097 6.884785824998707 24.238400412736908 0 1 -1
1488 166 3 -0.6830000000000001 11.752170058976594 5.447789566581581 25.507954329845994 0 1 -1
1486 166 1 -0.18 13.890020684174987 6.212090880239056 24.485659511944156 0 1 -1
571 64 2 0.06 7.1829674423060546 13.116488060571715 20.20298416908158 1 1 0
243 27 4 0.418 13.135092048735745 3.961149115333319 24.929415388585454 0 1 -2
1491 166 2 0.06 13.994306901356238 5.40818395683025 23.79688775120077 0 1 -1
71 8 2 0.06 9.49872994761498 2.581549077997422 28.89330636076361 1 1 0
324 36 4 0.418 10.517121846648417 7.439516391412778 27.622449523326345 0 0 0
2056 229 2 0.06 13.035523120215517 13.009931139091083 25.362525540434525 1 -1 1
1489 166 2 0.06 14.579804644788945 5.955602432611028 25.363201499639572 0 1 -1
1552 173 2 0.06 12.568384404094253 9.601012284725392 24.204751315765137 1 1 0
1493 166 2 0.06 12.515081997998205 7.371313637760693 25.8265460832689 0 1 -1
1007 112 2 0.06 14.346831466247943 3.3173678724249287 22.270169393348553 0 1 -1
241 27 2 0.06 13.445538460947672 3.629983750897883 27.09353532317231 0 1 -2
236 27 5 0.145 13.335559422350201 2.7932760599047866 26.43607152521848 0 1 -2
471 53 3 -0.6830000000000001 1.1376423092553507 0.6737681969658144 21.035280022048674 0 0 0
65 8 5 0.145 10.027596461296872 1.5633478621495616 29.12303828642232 1 1 0
318 36 3 -0.6830000000000001 11.008555779101737 7.9865107313399175 28.173746785461915 0 0 0
2164 241 2 0.06 6.404034898848225 8.112069065288932 28.314016282705467 0 1 0
2131 237 2 0.06 4.78060102555575 4.446603242313697 20.6669111317676 0 0 0
610 68 2 0.06 2.0644540002477214 14.503313703152346 22.957284757667765 0 1 0
16 2 2 0.06 1.3230379949939532 10.20844380320376 28.997294251884952 0 1 -1
1473 164 2 0.06 6.680660089388953 0.9687703453772971 25.00782579200034 0 2 -1
1468 164 1 -0.18 7.206537990503753 0.696547413675084 25.95390548323185 0 2 -1
1105 123 2 0.06 1.4063950859774654 11.667860279211965 21.554694924700193 1 0 1
1471 164 2 0.06 7.69454438064579 1.5357232420500888 26.446972105113872 0 2 -1
605 68 5 0.145 1.0261971511830916 14.783337822435183 23.150965536817942 0 1 0
317 36 5 0.145 12.004258137169478 7.247836074006866 28.878917591624287 0 0 0
1100 123 5 0.145 1.8741328872993122 11.0268366315597 20.897636551329413 1 0 1
54 6 4 0.418 8.12721410947858 11.381742866449057 29.194458970920124 0 0 -1
796 89 2 0.06 9.799740933568499 5.372603269737332 20.447537304680665 -1 0 -1
470 53 5 0.145 0.6219317336172288 1.3642438241677668 22.15931815198534 0 0 0
1104 123 2 0.06 1.3767939770114137 9.323417409533581 22.107880335911602 1 0 1
754 84 2 0.06 2.427201511286765 0.9740393469497493 28.035356132356526 1 1 -1
1162 130 1 -0.18 5.424727308512102 9.719715648462309 25.15085317782951 1 0 0
11 2 5 0.145 1.8133296987013 9.470040299871117 28.33642073835896 0 1 -1
543 61 3 -0.6830000000000001 3.4079501676586577 12.789140702578864 25.686716261609938 0 0 0
549 61 4 0.418 3.6066717469471916 12.23576813623895 25.001267751234607 0 0 0
13 2 2 0.06 3.2067133042238543 9.122020698768694 26.857278760390322 0 1 -1
15 2 2 0.06 2.0089227077180665 10.302646780011601 26.326793511436833 0 1 -1
1164 130 3 -0.6830000000000001 4.523187731756979 11.2456489758185 23.462976811488538 1 0 0
10 2 1 -0.18 2.643259958871987 9.971624120065874 27.16685124577993 0 1 -1
14 2 2 0.06 3.243981735366275 10.863593996575403 27.479026569216764 0 1 -1
1170 130 4 0.418 4.07502695257153 11.244278698484738 22.59600995485878 1 0 0
1167 130 2 0.06 5.506659412901511 8.676202673900315 25.489865442512205 1 0 0
1165 130 2 0.06 5.104484744608887 10.383542543083093 26.01227195777259 1 0 0
1163 130 5 0.145 4.598092745168673 9.900213891118861 23.887247835992234 1 0 0
1168 130 2 0.06 3.6240345624360444 9.378833948934867 23.93445238144482 1 0 0
1169 130 2 0.06 5.141434504444995 9.352432325119894 23.091211550871762 1 0 0
542 61 5 0.145 4.658806967499271 13.280722123374026 26.021016293300796 0 0 0
286 32 2 0.06 1.2340335752822518 13.59509565421304 26.72959840935981 1 1 0
1166 130 2 0.06 6.4749305309294005 10.000814393453355 24.890525145514637 1 0 0
715 80 2 0.06 9.710085160416456 9.10529810539678 19.986623504397173 -1 0 1
281 32 5 0.145 0.6056763700824577 14.39877920283661 27.106083757447514 1 1 0
1101 123 3 -0.6830000000000001 3.2144609200463936 11.151313491261048 21.28602029672883 1 0 1
2057 229 2 0.06 12.59880952493658 14.40038875386418 24.369213847701246 1 -1 1
548 61 2 0.06 4.908918322616849 14.220773454610894 25.46287162275599 0 0 0
2054 229 5 0.145 14.666586080463583 14.5348105599827 25.148780443226507 1 -1 1
545 61 2 0.06 5.891191868047575 13.756703923733875 27.742799334260027 0 0 0
1005 112 2 0.06 14.373181780191855 1.1475880271849663 22.74060085910189 0 1 -1
2215 247 1 -0.18 10.70077129262446 13.670623731112551 21.824625338649142 0 1 -1
1490 166 2 0.06 14.285203155183094 7.177107423552654 24.092589225964815 0 1 -1
323 36 2 0.06 12.836132462672964 7.99529990355615 28.986685325558078 0 0 0
2218 247 2 0.06 11.287777451135996 13.11377449665825 22.46922004821696 0 1 -1
2166 241 2 0.06 7.2310047848785155 6.770711712606412 29.235980020078237 0 1 0
472 53 2 0.06 1.3580202047126715 2.2563181206376353 24.009086322215296 0 0 0
2053 229 1 -0.18 13.18345140966982 14.100085943744999 25.257502746170317 1 -1 1
765 85 4 0.418 10.07806415387486 9.88163335174923 28.7719270467044 0 0 0
547 61 2 0.06 5.477922178775403 12.582601576836455 25.75477789854351 0 0 0
546 61 2 0.06 4.62847244050438 12.627974951684996 28.2113778302557 0 0 0
2058 229 2 0.06 12.723931930300564 14.599132934961936 26.09732176867002 1 -1 1
761 85 2 0.06 8.667826799343606 12.468642469440397 27.140423585624276 0 0 0
759 85 3 -0.6830000000000001 9.649146760504902 10.644289940303086 28.358568445125563 0 0 0
764 85 2 0.06 8.827112316847174 9.754540404166498 26.76056444871824 0 0 0
239 27 2 0.06 14.04212366267568 0.6581294293202471 26.259188188540882 0 1 -2
1575 175 4 0.418 14.270853813342628 9.463664457405608 26.33610619717571 -1 0 0
242 27 2 0.06 12.352239550397641 2.4392860659852857 26.383108995401024 0 1 -2
1502 167 2 0.06 0.580459642820255 2.930651806920874 26.751817765031582 0 0 -1
989 110 2 0.06 13.946577083330448 6.277195323776137 19.996750520239274 0 0 0
322 36 2 0.06 12.293677991448948 6.364495489533332 28.371822460218198 0 0 0
124 14 2 0.06 3.616176705088348 3.664014148686761 29.05407699116732 0 0 -1
1999 223 1 -0.18 14.73408493372565 14.332213415569331 29.25888169087102 0 -1 -1
1553 173 2 0.06 12.17717538567813 10.220195384113964 22.511273715136532 1 1 0
1556 173 2 0.06 14.530463761033031 9.945660471701592 22.529066544264893 1 1 0
2219 247 2 0.06 11.238968931853895 13.870900580984918 20.887184543209486 0 1 -1
757 85 1 -0.18 8.989550965955742 11.80474298095882 26.369066612354906 0 0 0
760 85 2 0.06 9.749750741081566 12.273846126402235 25.794705664662544 0 0 0
762 85 2 0.06 8.133499787839067 11.580585403366355 25.69556286554679 0 0 0
1554 173 2 0.06 12.287676050949097 11.263685063469817 23.927492796362337 1 1 0
758 85 5 0.145 9.551486952770219 10.52369379004634 26.975038838819614 0 0 0
1550 173 5 0.145 14.216794048538677 10.521171412502254 23.359616692651954 1 1 0
1551 173 3 -0.6830000000000001 14.741387519597923 9.971423055057533 24.451917717207614 1 1 0
1549 173 1 -0.18 12.699820449530396 10.4309600564236 23.494325332247627 1 1 0
2220 247 2 0.06 9.77697867629194 13.064279419600885 21.623865171496135 0 1 -1
1015 113 2 0.06 12.73130400035716 11.58041611099075 28.887094760161396 1 0 -1
763 85 2 0.06 10.512067442593244 10.16403108717506 26.59581070383252 0 0 0
122 14 2 0.06 3.9594004259624875 5.974174960205655 28.479865225733505 0 0 -1
1555 173 2 0.06 14.633077301641745 11.50787120000741 23.295921887026296 1 1 0
797 89 2 0.06 11.369246697346284 4.813495091755384 20.146505421567994 -1 0 -1
982 110 1 -0.18 14.033284753036819 8.385301608339908 20.585117318226807 0 0 0
1495 167 1 -0.18 0.6817213598852271 5.091464430978807 26.417850394701738 0 0 -1
986 110 2 0.06 14.173984454452674 9.346359680795683 20.171905973569466 0 0 0
2061 229 4 0.418 14.79882547846105 14.403138068007367 23.247284862390735 1 -1 1
125 14 2 0.06 2.04693720450821 4.719949275059313 29.148432400497207 0 0 -1
1078 120 2 0.06 0.5602945330525912 9.70839847930107 24.749880492448206 1 0 -1
1409 157 2 0.06 9.428457390720414 13.93360376793032 29.181437897623766 0 0 -1
1106 123 2 0.06 1.6448000674096952 11.388648631144358 19.885538591977173 1 0 1
1102 123 2 0.06 1.7339246171258968 9.005756180941132 20.39214782395019 1 0 1
12 2 3 -0.6830000000000001 0.7824198078528325 8.62906095344687 27.916029708242526 0 1 -1
152 17 2 0.06 5.930015163452456 1.8617838762233891 29.337534856997635 0 1 1
1017 113 4 0.418 13.701955901332528 9.674691606673777 29.37830496841977 1 0 -1
48 6 3 -0.6830000000000001 7.258331048145319 11.776442207419775 29.478205540299903 0 0 -1
484 54 2 0.06 2.603786167720284 11.863537992115358 29.42157705951968 0 0 -1
573 64 2 0.06 7.3233477992463145 11.38664488051021 19.950512185954572 1 1 0
516 58 3 -0.6830000000000001 3.7622924670859295 22.19731009253325 3.121032258233494 0 0 1
1188 132 4 0.418 5.060421728260231 20.552131115738376 2.740705830131352 0 1 0
1187 132 2 0.06 5.667553545549413 19.764519264863445 4.800305597916493 0 1 0
1935 215 4 0.418 5.538201648479592 18.58192826322602 1.4228450685232423 0 0 0
1182 132 3 -0.6830000000000001 5.702295057053293 19.823855525668414 2.61359349594028 0 1 0
1181 132 5 0.145 6.3021799935326595 19.591668100231217 3.917166816841439 0 1 0
515 58 5 0.145 2.471696220455825 21.576857284665977 3.1828207127460266 0 0 1
520 58 2 0.06 1.855945264773383 22.357456032726724 3.6196762046973943 0 0 1
514 58 1 -0.18 2.6081396718827823 20.27465875637047 4.005595071160638 0 0 1
1582 176 2 0.06 3.762456325868011 19.397888649213087 8.974096497244556 -1 0 0
518 58 2 0.06 3.103263446892673 20.4475934522889 4.951514783549953 0 0 1
1576 176 1 -0.18 5.811778181619601 19.62399609731183 9.768275057468141 -1 0 0
521 58 2 0.06 2.2365111353162006 21.33228789335807 2.109627167540859 0 0 1
519 58 2 0.06 3.1088521591861555 19.493064880724155 3.443696596237067 0 0 1
269 30 2 0.06 3.2211260086643048 15.688102419949134 5.307643630683164 1 0 1
2090 233 5 0.145 8.922318069419338 29.48752864776489 8.395645270286696 0 0 -1
864 96 4 0.418 9.164622184592565 22.66881830155168 1.2343168202276031 1 -1 0
1407 157 3 -0.6830000000000001 8.545371874286456 17.20445799797669 0.5707732295128946 0 0 0
996 111 2 0.06 1.4622574740165664 19.509187883724422 7.464688052048419 0 -1 0
456 51 2 0.06 1.5775896364396642 28.432466717535938 5.2800420050103725 1 0 1
451 51 1 -0.18 0.6195897775010859 27.84717811826733 5.205199948390595 1 0 1
1326 148 3 -0.6830000000000001 3.2974794309850695 23.686992765045872 0.8437714659477344 1 1 0
1383 154 2 0.06 11.055866146714841 15.697601545822767 9.756928912293716 0 0 -1
266 30 2 0.06 3.9054066011042323 17.00194573445986 3.107861122009215 1 0 1
1280 143 5 0.145 7.0338300510911935 16.396412756074202 8.654772977765571 -1 0 1
267 30 2 0.06 2.1149196868022426 17.389111749203906 2.9987340670069567 1 0 1
262 30 1 -0.18 2.8070130399196858 16.638253872599257 3.3965728678731395 1 0 1
1186 132 2 0.06 7.0965590159075065 20.391421243776534 3.9382046877330907 0 1 0
522 58 4 0.418 3.698290412929487 22.898591873960335 2.478356158218948 0 0 1
1283 143 2 0.06 8.178860040206324 18.173989317506766 8.12691401401419 -1 0 1
265 30 2 0.06 2.5814405069267647 15.706573478148359 2.89377049263776 1 0 1
938 105 5 0.145 14.053945207985274 17.5829386464617 8.20620822745662 0 0 0
1282 143 2 0.06 8.976751719473093 17.10402470703668 9.32008454837568 -1 0 1
508 57 2 0.06 11.295818559319613 20.71583037337676 1.4833825884503364 0 0 1
1279 143 1 -0.18 8.383691668945925 17.107894606436453 8.376448711866686 -1 0 1
2089 233 1 -0.18 10.299036785295531 28.88753735095608 8.411823283859174 0 0 -1
1180 132 1 -0.18 7.019718874922689 18.24150604881531 3.9399216262542227 0 1 0
1183 132 2 0.06 6.2604861293076075 17.5125132398343 3.731982134068572 0 1 0
1309 146 2 0.06 6.564531843199246 26.211537146012766 1.4215201861186282 0 0 -1
63 7 4 0.418 0.9769397502116527 21.120363124430185 9.742224120217841 -1 0 1
1276 142 2 0.06 3.5396330602491095 23.692051657863544 6.052517210067101 -1 -1 0
468 52 4 0.418 14.312081116428791 25.189799154576882 9.367879632636974 0 -1 0
529 59 2 0.06 9.88795783581519 29.432785638079594 4.058565573001813 1 -1 1
1581 176 2 0.06 6.475480765939944 19.356249212076733 9.006304361913603 -1 0 0
1840 205 2 0.06 11.246904124687466 16.125682576578505 4.309650771932294 0 0 0
454 51 2 0.06 0.6339410270840872 27.306572638268527 4.248061841211451 1 0 1
2094 233 2 0.06 10.4047693020391 28.069083906412494 7.651039500654517 0 0 -1
945 105 4 0.418 13.029624649953744 16.157351009467376 8.977749072820133 0 0 0
270 30 4 0.418 1.4167788519817175 15.569249306248876 6.167871956918344 1 0 1
1643 183 2 0.06 7.909457959327176 20.2735204175111 6.257065079502566 0 -1 0
1839 205 3 -0.6830000000000001 13.918221197864375 16.812526106186866 3.663216648925666 0 0 0
863 96 2 0.06 7.408443354583692 21.8655192710657 1.2944224081622857 1 -1 0
1286 143 2 0.06 6.18701849108286 16.614086456568195 7.973168087949296 -1 0 1
1247 139 2 0.06 13.478692048033912 20.76548803626359 0.8613783009797669 0 -1 1
1845 205 4 0.418 14.758521124916559 16.76845300594286 3.2408824994876 0 0 0
1642 183 2 0.06 9.466918543615584 20.706358456626 5.420827966798786 0 -1 0
298 34 1 -0.18 14.161627407536425 20.718059650218372 5.386017011203758 -1 -1 -1
1184 132 2 0.06 7.498987649911553 17.979970065874518 4.888416429295773 0 1 0
1185 132 2 0.06 7.826403108294254 18.090418413562894 3.2886535399473575 0 1 0
1639 183 1 -0.18 9.013975937888462 20.29104718899633 6.318923372329643 0 -1 0
1644 183 2 0.06 9.27007890048551 19.262393153680023 6.300731721782765 0 -1 0
303 34 2 0.06 13.910050838449434 21.470492588802443 4.6686746336331355 -1 -1 -1
301 34 2 0.06 14.235775200647485 21.21631354445085 6.317915546544731 -1 -1 -1
302 34 2 0.06 13.336667816360643 20.030632853066827 5.424577684274038 -1 -1 -1
510 57 2 0.06 11.773885004799311 20.195899031034052 2.9606268687730957 0 0 1
1640 183 5 0.145 9.484657954203687 20.997513500020723 7.64275240495598 0 -1 0
750 84 3 -0.6830000000000001 3.1342463870108546 28.88786293334013 0.6169771529750289 1 0 0
531 59 4 0.418 9.830488137097564 28.465262386577557 1.8659495963907065 1 -1 1
1294 144 2 0.06 12.815461689952246 27.14626341021038 2.944469584976261 0 -1 0
505 57 1 -0.18 11.107719893433444 20.895192815443238 2.505215175546435 0 0 1
1844 205 2 0.06 12.89547379447685 15.626119043306701 2.574373297937829 0 0 0
511 57 2 0.06 12.403954850578607 22.70825258011267 2.5950517837620093 0 0 1
268 30 2 0.06 3.0332294135057905 17.255778990365876 5.633087446678703 1 0 1
1837 205 1 -0.18 11.446521112912057 16.78428860710872 3.5581429076667717 0 0 0
1841 205 2 0.06 10.685124425209041 16.555071702835143 2.707079524945275 0 0 0
1843 205 2 0.06 12.92473445845795 17.29181905945913 2.0004227376676122 0 0 0
509 57 2 0.06 10.103010953517296 20.602455032477437 2.804718642541468 0 0 1
1646 183 2 0.06 8.823360254591558 20.707848319799787 8.477110293111876 0 -1 0
1645 183 2 0.06 10.48756489423771 20.78076359979884 7.949473296952032 0 -1 0
1842 205 2 0.06 11.32271927038496 17.866217042679388 3.8250972344232492 0 0 0
1838 205 5 0.145 12.773774940397214 16.61043203512356 2.8654991832338133 0 0 0
460 52 1 -0.18 13.664807525764626 28.044384193038603 9.547450278014102 0 -1 0
939 105 3 -0.6830000000000001 13.33787181561657 17.039395511981475 9.294807592551383 0 0 0
1246 139 2 0.06 13.619325550188089 18.956465832979582 0.6682332791815384 0 -1 1
1285 143 2 0.06 7.248616095727144 15.332247717880634 8.67275163576502 -1 0 1
771 86 2 0.06 0.6918842376389875 23.35055430352616 5.547287912896342 0 1 0
264 30 3 -0.6830000000000001 1.3125634038031286 16.127771012271964 5.372838052189764 1 0 1
1278 142 4 0.418 6.05855199707863 23.994998825876642 6.710551108065476 -1 -1 0
455 51 2 0.06 0.6576821913531421 27.080542158886672 5.97950485662559 1 0 1
937 105 1 -0.18 14.291423026014403 19.058577033714435 8.530012446267431 0 0 0
1274 142 2 0.06 4.274926098147445 22.14039749484749 8.701839775655502 -1 -1 0
1277 142 2 0.06 4.679334257596155 22.240310287121673 6.207635907643098 -1 -1 0
1270 142 1 -0.18 3.5538435349082707 22.67996732477848 8.005662144533037 -1 -1 0
2124 236 4 0.418 5.6017799664965064 25.913871001684356 7.158789403827382 1 -1 0
1128 126 3 -0.6830000000000001 4.9787368150752185 28.63602606010727 8.840985792137099 0 0 0
1310 146 2 0.06 5.120004008198871 27.46614468195836 1.3233140420685499 0 0 -1
2096 233 2 0.06 8.095887052992772 28.77176094123368 8.422205959241033 0 0 -1
1272 142 3 -0.6830000000000001 5.22492254072297 24.139085632397382 7.197745114585585 -1 -1 0
944 105 2 0.06 13.549295930215168 17.414918909641578 7.284378648863099 0 0 0
769 86 2 0.06 0.8968266988906879 24.96565510391555 6.29467917139822 0 1 0
1327 148 2 0.06 2.401581152999452 24.965463584328297 3.446535269679214 1 1 0
1329 148 2 0.06 3.799055786627749 25.573911828088804 2.6484946323050287 1 1 0
1293 144 2 0.06 14.576300346802775 25.474259970495353 3.509559527860996 0 -1 0
2120 236 2 0.06 3.8329891118627537 26.263855999869158 5.844971202523109 1 -1 0
2117 236 5 0.145 5.882930130586191 27.245703975024263 5.757346456966076 1 -1 0
1325 148 5 0.145 2.2934177095314623 24.636280340232148 1.2736309807711266 1 1 0
1324 148 1 -0.18 2.718136582051385 25.45629339432014 2.5271014717696176 1 1 0
1331 148 2 0.06 1.378441384702743 24.190603828376233 1.545402841550929 1 1 0
1328 148 2 0.06 2.1142108331380607 26.35525817907439 2.589840038280533 1 1 0
2116 236 1 -0.18 4.346143487607226 27.30891073099194 5.606320006115967 1 -1 0
492 55 2 0.06 6.395560103234551 23.240045331179523 3.3999898914765323 0 -1 1
2119 236 2 0.06 3.86567094694167 28.139392108500466 6.200699178988152 1 -1 0
1271 142 5 0.145 4.329531704293661 23.173353568256175 6.733600300340072 -1 -1 0
2121 236 2 0.06 4.146964280763433 27.418677052787622 4.562769010727771 1 -1 0
1284 143 2 0.06 9.071205510404184 16.63965486780377 7.655596495879577 -1 0 1
2123 236 2 0.06 6.475997583160455 26.641493774120804 5.062230326627428 1 -1 0
2118 236 3 -0.6830000000000001 6.0872080921830145 26.752483548460695 7.066584525662914 1 -1 0
2032 226 2 0.06 10.00873222453009 25.626776892702715 0.7128628887821797 1 -1 0
940 105 2 0.06 14.79047577465782 19.506421261120458 7.7447558837005435 0 0 0
1243 139 1 -0.18 14.205997212650312 19.90739878412021 0.7557152573375511 0 -1 1
1127 126 5 0.145 3.6544760265425995 28.491722826434284 9.299571097761099 0 0 0
1134 126 4 0.418 5.192179100537923 27.929940226266673 8.288734994051255 0 0 0
465 52 2 0.06 13.665807346352876 28.009331280258095 8.459499288537202 0 -1 0
1578 176 3 -0.6830000000000001 4.216496857231261 17.746058900765476 10.090383114633807 -1 0 0
1132 126 2 0.06 3.0243757720631437 28.13811454109093 8.499390387326184 0 0 0
1287 143 4 0.418 5.852621089352332 17.121557322356928 10.050405093474774 -1 0 1
489 55 3 -0.6830000000000001 7.641667795665719 23.926674259797203 5.837348945187153 0 -1 1
1273 142 2 0.06 3.172186532938305 23.531087379153725 8.613688609998173 -1 -1 0
1306 146 1 -0.18 5.966178084521354 26.98156469689436 0.765917543301029 0 0 -1
1133 126 2 0.06 3.5334273174328357 27.768337896870918 10.122257985978903 0 0 0
1275 142 2 0.06 2.762945861190951 22.017622318899157 7.773026772737346 -1 -1 0
466 52 2 0.06 12.307596565666968 26.309117367706328 9.67430082261308 0 -1 0
1577 176 5 0.145 4.373838457331566 19.117398520977886 9.78167406680272 -1 0 0
942 105 2 0.06 13.338887568460473 19.45977136968748 8.580707184810066 0 0 0
1671 186 2 0.06 11.279804312472274 24.980809193248113 6.297705119885112 0 -1 0
464 52 2 0.06 13.17673522400305 28.91769057009654 9.761332412725304 0 -1 0
1288 144 1 -0.18 13.582871271687669 25.224274807916863 3.1611187622620815 0 -1 0
528 59 2 0.06 8.734454166881394 28.246971004965623 5.760545663091432 1 -1 1
263 30 5 0.145 2.58580030729826 16.50458914544049 4.975935981299721 1 0 1
1672 186 2 0.06 13.484241908878458 24.41984137964856 5.851142678414531 0 -1 0
1795 200 2 0.06 8.258276016036538 24.257776977651865 9.400524635186649 0 0 0
530 59 2 0.06 8.366775501175256 28.826536867089935 3.349531150463431 1 -1 1
1666 186 1 -0.18 11.95500725852343 25.086327174600505 7.155006940933387 0 -1 0
2122 236 2 0.06 6.258014974983265 28.253651499204608 5.740840625707774 1 -1 0
1406 157 5 0.145 8.394466327131266 15.851514034996661 0.6031612289462263 0 0 0
1291 144 2 0.06 13.52377679984052 24.885719742420726 2.1005589529848434 0 -1 0
1411 157 2 0.06 8.204245562569167 15.632632542061232 1.6573490329668699 0 0 0
1669 186 2 0.06 12.243954278532545 26.184335905070327 7.242375446796054 0 -1 0
491 55 2 0.06 6.657672355678966 24.83279357043523 3.7442129697707087 0 -1 1
490 55 2 0.06 7.5824970114025545 24.12842880592465 2.5765354567190357 0 -1 1
494 55 2 0.06 8.719993168884498 22.767482652618398 4.432104483310419 0 -1 1
487 55 1 -0.18 7.180056244383002 23.93090454273821 3.4840806573682928 0 -1 1
1296 144 4 0.418 10.72101808737106 26.44147027467413 3.157063196235732 0 -1 0
1289 144 5 0.145 12.62344601197328 26.25989039054687 3.55795163351066 0 -1 0
493 55 2 0.06 9.026648159994217 24.506050701244526 4.451822267741193 0 -1 1
523 59 1 -0.18 9.19729472229212 27.663057459833958 5.035021475106387 1 -1 1
1295 144 2 0.06 12.599825933710287 26.569198569662987 4.630114768521837 0 -1 0
507 57 3 -0.6830000000000001 10.38246847727603 23.122363012963078 2.5359289195101056 0 0 1
1292 144 2 0.06 13.297348778349471 24.324213937706574 3.6347078243887987 0 -1 0
1641 183 3 -0.6830000000000001 9.363384104629136 22.39420393520483 7.500010957767695 0 -1 0
527 59 2 0.06 8.74314368820585 26.7030828075533 5.069479180909982 1 -1 1
1796 200 2 0.06 9.124324742503543 25.702927029611807 9.516891186634451 0 0 0
526 59 2 0.06 10.213759175068354 27.50592501115414 5.356695188604258 1 -1 1
506 57 5 0.145 11.421262095782678 22.305744944738116 3.0253995954019683 0 0 1
524 59 5 0.145 9.361087626461014 28.515334895353405 3.7176505710487358 1 -1 1
513 57 4 0.418 10.702157876285987 24.025209155638677 2.5986335118566575 0 0 1
1929 215 3 -0.6830000000000001 5.566501204920785 18.01413231459256 0.6410656335145497 0 0 0
488 55 5 0.145 8.239141341415847 23.725674441465458 4.568273272167694 0 -1 1
525 59 3 -0.6830000000000001 10.018755396212502 27.909472149165488 2.6425574512143766 1 -1 1
495 55 4 0.418 8.264589213341576 23.518690746063818 6.504616279803349 0 -1 1
517 58 2 0.06 1.6082974767515894 19.968997172918726 4.376747995444691 0 0 1
1670 186 2 0.06 11.438658486653573 24.85360525127814 8.148103209484045 0 -1 0
1647 183 4 0.418 9.594267300007223 22.770444203654165 8.295348335149644 0 -1 0
2092 233 2 0.06 10.432062424276207 28.317575287495764 9.374971382608122 0 0 -1
1668 186 3 -0.6830000000000001 14.325178936198721 24.508518437549114 7.7020467057086295 0 -1 0
1667 186 5 0.145 13.213572797544254 24.243188211843865 6.818224171957433 0 -1 0
1290 144 3 -0.6830000000000001 11.354871346609055 25.730011723297032 3.2110129002639547 0 -1 0
1792 200 1 -0.18 8.732906021771557 24.9055045359704 10.122373978414352 0 0 0
1673 186 2 0.06 12.984541664760364 23.15076313817243 6.802383360900444 0 -1 0
512 57 2 0.06 11.4818287100463 22.407096283185993 4.165903241878029 0 0 1
941 105 2 0.06 14.86168925059477 19.083900714937165 9.425115308688564 0 0 0
2114 235 2 0.06 14.840641212924638 22.39550800639835 2.3403288754987006 -1 -1 0
463 52 2 0.06 14.657211305371245 28.10169267022094 9.863942670076844 0 -1 0
1580 176 2 0.06 5.851602299089675 20.774381795197165 9.812857491035114 -1 0 0
1248 139 2 0.06 14.764773893486767 19.797753671308733 1.6821527093129283 0 -1 1
1281 143 3 -0.6830000000000001 6.65906319463099 16.602240486508165 9.976971721567647 -1 0 1
462 52 3 -0.6830000000000001 14.349182984476618 25.86480985864393 10.10551652436878 0 -1 0
943 105 2 0.06 14.954632025263788 16.99696241441999 8.181040520758911 0 0 0
1584 176 4 0.418 3.261584181357385 17.563396455585277 10.10504117990414 -1 0 0
870 97 2 0.06 10.25068400166364 20.359975565570146 10.142825638883116 0 0 0
1330 148 2 0.06 2.1351714778594126 25.353889404698037 0.5645456851003345 1 1 0
2033 226 2 0.06 11.372636674089348 24.712918848449846 0.7056576172733244 1 -1 0
60 7 2 0.06 3.3417752172196615 21.50305304866879 12.694115421703877 -1 0 1
696 78 3 -0.6830000000000001 5.2081794754581585 20.259884813567226 16.122177115510855 1 -1 1
698 78 2 0.06 4.08158388539192 17.972178389155992 16.934288495870945 1 -1 1
61 7 2 0.06 1.5734501117784288 22.552756863806316 11.150901902198456 -1 0 1
694 78 1 -0.18 3.941698067061511 18.185670116189648 15.856282161457514 1 -1 1
697 78 2 0.06 3.0277410730707874 18.753758483503866 15.700243050096388 1 -1 1
702 78 4 0.418 5.937726312290192 20.79375580592947 15.880340678160678 1 -1 1
700 78 2 0.06 5.259591237999591 19.175304288559083 14.391757450510681 1 -1 1
695 78 5 0.145 5.215884948544788 19.015069404467255 15.43631129230502 1 -1 1
701 78 2 0.06 6.047565234067222 18.389124106842537 15.768138873519861 1 -1 1
56 7 5 0.145 1.3876127109787575 21.557797040993627 11.59091860513613 -1 0 1
1763 196 2 0.06 11.545692849284023 17.62054304246744 17.57777342750608 1 1 0
699 78 2 0.06 3.9173593950443224 17.31979078619188 15.22094736920689 1 -1 1
1200 134 3 -0.6830000000000001 1.2611521137603696 17.789750866502025 10.721383416366495 1 0 0
57 7 3 -0.6830000000000001 1.5072183940924244 20.661407593320703 10.42507451971811 -1 0 1
58 7 2 0.06 2.1835869529234095 20.109278234848702 12.834057997536005 -1 0 1
1206 134 4 0.418 1.2021443221397758 18.679904215143218 10.35473978328439 1 0 0
1053 117 4 0.418 14.574741661760715 23.213714965218678 10.775020948872797 0 -1 0
1583 176 2 0.06 3.7878813689359148 19.714027660596116 10.507816389635 -1 0 0
2177 242 2 0.06 5.922247026488097 16.371586869739048 17.988871570962516 1 1 0
1048 117 2 0.06 13.858129800299487 22.010135628747044 14.118598644145202 0 -1 0
1757 196 5 0.145 12.159610079798503 16.69677029166651 17.493681484023732 1 1 0
55 7 1 -0.18 2.299319776255505 21.202636628196323 12.743285732744452 -1 0 1
1202 134 2 0.06 1.6901065067662948 15.936573888112871 12.541128643410321 1 0 0
2156 240 2 0.06 14.606636520055128 26.45575703299265 19.37095895613008 0 0 -1
313 35 2 0.06 9.804807086487832 29.217805618005666 17.535267643993045 1 0 0
1199 134 5 0.145 0.7767306023866174 17.736646244821976 11.995769513135894 1 0 0
1764 196 4 0.418 11.669251312486123 16.395486045530767 15.67248874799438 1 1 0
1822 203 2 0.06 1.2587637249995738 28.664590990647575 14.736287168111804 0 -1 0
1354 151 2 0.06 0.5622558782671874 25.92182630826715 19.031006983411167 1 0 0
865 97 1 -0.18 10.768036946003011 19.699180918892758 10.820958812667582 0 0 0
1760 196 2 0.06 10.52949732463248 15.258247875181219 17.921842083519095 1 1 0
176 20 2 0.06 10.300920752667253 18.95237477714126 19.51969200289566 0 0 0
408 46 3 -0.6830000000000001 0.9671257528289333 22.483335765030624 16.53004217579543 1 0 -1
410 46 2 0.06 2.3250310764464137 20.533921821794053 18.821760577381312 1 0 -1
914 102 2 0.06 1.7497354612271903 29.195236331830714 17.788426062582673 0 -1 0
115 13 2 0.06 3.3838646219007944 26.156885194769863 19.546565746375435 1 -1 -1
2176 242 2 0.06 7.531340403329079 16.07501959617459 17.734579857231466 1 1 0
1398 156 3 -0.6830000000000001 7.501579880962202 21.647104649322884 15.153119782069083 0 -1 0
1193 133 2 0.06 5.478343051285845 15.750277899646013 12.436128258551328 0 1 0
1344 150 3 -0.6830000000000001 10.289592721998455 26.328360881581823 18.11800163865128 0 0 1
412 46 2 0.06 2.6440869628459227 21.398854158412313 16.287675836677664 1 0 -1
59 7 2 0.06 1.8571634630818061 21.595220823516755 13.57656349862887 -1 0 1
414 46 4 0.418 1.3566351254113163 23.246977472308174 16.200467462801825 1 0 -1
1357 151 2 0.06 2.1238977677313002 26.543637869259975 17.31411268016737 1 0 0
407 46 5 0.145 2.039051210773438 21.78748001075406 17.125331852840993 1 0 -1
1352 151 5 0.145 1.2971703950966211 25.908811740236544 16.99106057622314 1 0 0
1204 134 2 0.06 0.6248973865806426 18.723881238770538 12.33894835874756 1 0 0
1052 117 2 0.06 14.16212760416312 24.13915306835422 12.98490305708618 0 -1 0
1346 150 2 0.06 9.55048004767682 26.057024755888612 15.460058194751536 0 0 1
1562 174 2 0.06 14.354092713926844 17.191436963850556 14.690618661862418 0 0 1
212 24 2 0.06 13.73930613028887 27.980390102401415 16.399025805419072 1 0 0
214 24 2 0.06 13.462648208616438 28.703712435289333 13.439319738346638 1 0 0
406 46 1 -0.18 1.5128873309347652 20.69662295523883 18.108304077816506 1 0 -1
869 97 2 0.06 11.187394866012584 18.88399889540343 10.302385649300897 0 0 0
1045 117 1 -0.18 14.862900001470116 22.364898194047505 13.784911016942475 0 -1 0
1758 196 3 -0.6830000000000001 12.459980924182672 16.149815225445852 16.190369914279714 1 1 0
1761 196 2 0.06 11.166538824106857 15.955852658979913 19.269482721027913 1 1 0
1565 174 2 0.06 14.866109208216855 18.48057465875379 11.781668951202754 0 0 1
1203 134 2 0.06 1.440959582122257 16.849160498373926 13.931804194916024 1 0 0
1347 150 2 0.06 9.489354083043859 24.33551432663417 15.966424750611873 0 0 1
1799 200 2 0.06 10.739349826362773 24.603598270978516 11.155737276001304 0 0 0
2170 242 1 -0.18 7.284879159166268 17.912917970993036 18.71708551135771 1 1 0
2175 242 2 0.06 6.864637587870697 18.57790639057587 18.018688149652093 1 1 0
2171 242 5 0.145 6.844019502679467 16.48454695497057 18.48282705096424 1 1 0
411 46 2 0.06 1.5239708684976507 19.702646881701156 17.66054141273812 1 0 -1
736 82 2 0.06 9.095241991204842 17.99189948189614 13.418347620953183 -1 0 0
734 82 2 0.06 7.61365269611902 16.164504693030814 14.574299272659957 -1 0 0
737 82 2 0.06 9.349680135743267 16.37906323828113 12.561982989285557 -1 0 0
853 95 2 0.06 11.318907064176354 20.32669612791853 15.868695812578776 1 -1 0
732 82 3 -0.6830000000000001 10.844100536067934 16.819116470838217 13.993185040079213 -1 0 0
738 82 4 0.418 11.345746857063334 17.225994803797263 13.312707823320903 -1 0 0
731 82 5 0.145 9.473315642611466 16.967482141594118 13.54786921780306 -1 0 0
733 82 2 0.06 9.163944300795734 15.484925943041503 15.101215743565756 -1 0 0
730 82 1 -0.18 8.682369592499178 16.415808577508397 14.75369140148297 -1 0 0
735 82 2 0.06 8.719116236332633 17.09410185884908 15.619959500582528 -1 0 0
1875 209 3 -0.6830000000000001 6.145028978520501 28.904412577092195 11.706696964341763 0 -1 -1
2172 242 3 -0.6830000000000001 6.970639472549657 15.745036487951877 19.70542750760518 1 1 0
1566 174 4 0.418 13.263754952185598 16.946407545842483 11.030469012775148 0 0 1
851 95 2 0.06 9.496229036641218 20.7227144472091 17.152394215791432 1 -1 0
847 95 1 -0.18 10.220964121654095 21.54784753819287 17.11318546029502 1 -1 0
848 95 5 0.145 11.006502054749484 21.362530027721604 15.876902833340047 1 -1 0
850 95 2 0.06 10.840356935415484 21.356523744915584 18.052401879136966 1 -1 0
1404 156 4 0.418 8.410135145719627 21.83020834650729 15.08887055615695 0 -1 0
1762 196 2 0.06 13.100048098562727 16.84752086762795 18.10924086334353 1 1 0
1560 174 3 -0.6830000000000001 13.255709176471056 17.225260852350928 11.96486338871328 0 0 1
849 95 3 -0.6830000000000001 10.351840180358893 21.771776922524893 14.689678623245573 1 -1 0
855 95 4 0.418 10.959494352106125 21.610264473323625 13.927991468874254 1 -1 0
866 97 5 0.145 11.937570484633286 20.29951955107446 11.80227140600294 0 0 0
1563 174 2 0.06 13.892448224676423 18.85651574162378 14.070330787568736 0 0 1
868 97 2 0.06 10.165354356694472 19.272024353604387 11.612169410159966 0 0 0
1559 174 5 0.145 14.527008702925325 17.647606982483445 12.3640752582376 0 0 1
1800 200 4 0.418 10.794455303943668 22.49037586288096 10.962581475668353 0 0 0
1335 149 3 -0.6830000000000001 14.869164434026676 21.727010172188756 17.17468083667095 0 -1 0
1579 176 2 0.06 6.224396693206245 19.29757298482658 10.664325345906343 -1 0 0
1681 187 2 0.06 0.5363448060121954 16.871646528838966 19.251529209831133 1 -1 0
1336 149 2 0.06 14.632302991246531 19.767887974510977 18.77012113513537 0 -1 0
1201 134 2 0.06 2.6984108494791235 17.337963167483622 13.048284329477438 1 0 0
1682 187 2 0.06 0.9008128170156 15.160443541808903 18.76887033311371 1 -1 0
852 95 2 0.06 9.5811446176601 22.39370464397647 17.229362196396593 1 -1 0
2173 242 2 0.06 8.381804387867472 17.956784788004207 18.772368839301826 1 1 0
2174 242 2 0.06 6.8489314624928115 18.323201432397347 19.67386606401491 1 1 0
1338 149 2 0.06 13.809979006383156 19.337287237238336 17.26054338624032 0 -1 0
467 52 2 0.06 13.011229608829856 26.902457446344656 11.28537456352616 0 -1 0
409 46 2 0.06 0.5682304621932632 20.869228256603925 18.668504033013583 1 0 -1
413 46 2 0.06 2.5483934290346837 22.5377489301868 17.790000136418357 1 0 -1
1878 209 2 0.06 8.613895880824797 27.604284149933605 12.42312822442372 0 -1 -1
872 97 2 0.06 11.860380880992032 19.691191646346418 12.698715929285946 0 0 0
1333 149 1 -0.18 14.769548427224905 19.35527968315362 17.724997716197926 0 -1 0
1873 209 1 -0.18 8.523672337861782 28.367255658433585 11.636430010207782 0 -1 -1
1756 196 1 -0.18 11.438235596050918 15.617608149663756 18.32778690366539 1 1 0
1435 160 2 0.06 4.414901237611171 24.363703757612036 17.935153621901925 0 0 0
1397 156 5 0.145 6.92408847246317 22.011401976601825 13.920556392729026 0 -1 0
1402 156 2 0.06 5.857621990952557 21.834970921419647 13.90233045955597 0 -1 0
646 72 2 0.06 3.5599438823683367 26.487839037180784 12.16197998178509 1 -1 0
647 72 2 0.06 4.161242935922896 26.25615347406287 13.855390993662349 1 -1 0
116 13 2 0.06 3.3282093777994035 27.918746279778745 19.664023246264513 1 -1 -1
1436 160 2 0.06 5.81856516141665 23.7206001893219 17.09816965540562 0 0 0
642 72 3 -0.6830000000000001 2.061018629266014 26.2680921778111 13.562558655711657 1 -1 0
1353 151 3 -0.6830000000000001 1.8313865046960436 25.016466514354477 15.942288393572092 1 0 0
1359 151 4 0.418 1.9152762744562346 25.535180636585743 15.120080850315743 1 0 0
643 72 2 0.06 2.6373619453220827 24.16333796859371 12.31335954584649 1 -1 0
1437 160 2 0.06 4.503922722961394 24.29195920054576 16.123197063506503 0 0 0
1432 160 1 -0.18 5.0610351247809024 24.482212632811347 17.064558975532172 0 0 0
1439 160 2 0.06 6.422060321517536 26.137882513804563 16.46297521475271 0 0 0
640 72 1 -0.18 3.472889156299724 24.521510886846308 12.930361474167984 1 -1 0
1047 117 3 -0.6830000000000001 14.150088908048216 22.73071228517606 11.481170253944546 0 -1 0
1433 160 5 0.145 5.593331821827057 25.92412640173867 17.077206973238 0 0 0
1438 160 2 0.06 4.787311564564729 26.504879111049306 16.675932833783 0 0 0
1434 160 3 -0.6830000000000001 6.124278291839426 26.45071113526884 18.269749686596683 0 0 0
645 72 2 0.06 4.377965584133378 24.47612094431897 12.37476284423156 1 -1 0
641 72 5 0.145 3.346220923673543 25.996377031962993 13.098690323970997 1 -1 0
644 72 2 0.06 3.5034085506669004 23.93739248372777 13.814897406125628 1 -1 0
1355 151 2 0.06 1.6935049859433435 24.604632063626568 18.601564598299262 1 0 0
648 72 4 0.418 1.5883753021511935 26.937127887282884 13.059848866764147 1 -1 0
1636 182 2 0.06 7.463226570951202 23.107711865680855 19.273548570081296 0 0 0
1351 151 1 -0.18 0.8739961388994444 25.17725679063758 18.261925613069472 1 0 0
1440 160 4 0.418 6.850027348793831 26.989949902497678 18.05033419165821 0 0 0
1396 156 1 -0.18 7.5898632342867955 21.233931383620558 12.79578686418825 0 -1 0
1400 156 2 0.06 7.3752705301958 20.151115575013478 12.796192114717256 0 -1 0
1399 156 2 0.06 7.186811303222612 21.65694412493154 11.851234878490564 0 -1 0
1877 209 2 0.06 8.225396678472682 27.887083360048678 10.716996526378939 0 -1 -1
871 97 2 0.06 12.927010257786765 20.17044978834869 11.319697734901633 0 0 0
1342 150 1 -0.18 10.157373299014584 25.207748343892312 15.85702221669017 0 0 1
1345 150 2 0.06 10.80862725246496 24.986243233821277 14.990824471566595 0 0 1
1401 156 2 0.06 8.68451234376796 21.303062303784884 12.75420685818084 0 -1 0
1794 200 3 -0.6830000000000001 10.121210881604327 22.873780080322845 10.346785661616098 0 0 0
854 95 2 0.06 11.865179242808821 21.978565529545072 15.861229488664966 1 -1 0
1350 150 4 0.418 10.711414847124692 26.215299071173575 18.95517664373864 0 0 1
208 24 1 -0.18 13.414461841697786 28.66706838150656 15.645450635661035 1 0 0
2076 231 2 0.06 14.060714077084818 24.537559379713777 17.33353839173251 0 0 1
461 52 5 0.145 13.173409259494584 26.749915295130926 10.225120451634167 0 -1 0
1637 182 2 0.06 8.561353219163253 24.439142283364454 19.20501516712011 0 0 0
1348 150 2 0.06 11.877533857012398 26.30162004931247 16.860206648698693 0 0 1
1343 150 5 0.145 11.03159243413455 25.63355505471562 17.112818856856542 0 0 1
867 97 3 -0.6830000000000001 11.817064023731982 21.708391066207284 12.166320800895754 0 0 0
2071 231 1 -0.18 14.676679942371388 25.06730733205059 16.56341532036288 0 0 1
1776 198 3 -0.6830000000000001 4.219676061133541 15.198290098586298 19.33022060889966 0 -1 0
1876 209 2 0.06 9.45848794618864 28.892329098561866 11.483857533039279 0 -1 -1
209 24 5 0.145 13.9096707182402 28.138180015873374 14.305593470099785 1 0 0
314 35 2 0.06 9.501131844898477 28.985074943948007 15.850143242607427 1 0 0
1819 203 1 -0.18 0.8945098084486323 29.36389156768236 14.06580040562774 0 -1 0
1403 156 2 0.06 7.183325243306691 23.046388355690226 13.645316189292101 0 -1 0
309 35 3 -0.6830000000000001 8.272929269663901 27.962463529723344 17.257504880218463 1 0 0
308 35 5 0.145 8.97838819451789 29.132970794053485 16.822197096582386 1 0 0
1798 200 2 0.06 9.317893899670795 23.848419510715466 11.930345700670104 0 0 0
315 35 4 0.418 9.013685719140774 27.348361353039735 17.523567634650306 1 0 0
1349 150 2 0.06 11.539616272850301 24.82075897488091 17.626163851897118 0 0 1
1881 209 4 0.418 5.976638610701986 28.636828453917886 10.844215852737012 0 -1 -1
213 24 2 0.06 12.313981804715535 28.569711110190894 15.62561900735492 1 0 0
873 97 4 0.418 12.698823681663038 22.086523230125188 12.01203802118342 0 0 0
1793 200 5 0.145 9.750392064614797 24.06008262309949 10.968048103083385 0 0 0
2075 231 2 0.06 14.339498715056214 26.074472671828936 16.483983391439867 0 0 1
1198 134 1 -0.18 1.721771249785725 16.95593202338967 12.889965902281654 1 0 0
2074 231 2 0.06 14.419634528885785 24.622812389518906 15.618199857977594 0 0 1
1777 198 2 0.06 3.0130268662938606 17.523640419060087 19.728910397725826 0 -1 0
215 24 2 0.06 13.715668243226267 27.055498271680932 14.248093343184538 1 0 0
1046 117 5 0.145 14.852076170926617 23.36919177038503 12.591308474860396 0 -1 0
1558 174 1 -0.18 14.598429073002608 18.006814669645564 13.89619877622956 0 0 1
1797 200 2 0.06 7.99785759292244 25.30346273230527 10.814493668769455 0 0 0
1358 151 2 0.06 0.5942667232050558 26.611737918640216 16.611828521134925 1 0 0
2158 240 2 0.06 12.849850782062727 28.256946871220066 19.338024777903478 0 0 -1
1874 209 5 0.145 7.422648034084236 29.392177163446604 11.769707404289052 0 -1 -1
1408 157 2 0.06 9.661516187111049 15.351558060829822 27.966480744611758 0 0 -1
245 28 5 0.145 8.074356014695363 17.035060172769214 24.515198723107716 -1 0 0
244 28 1 -0.18 7.110550294339405 16.076189169624435 23.788208507050165 -1 0 0
247 28 2 0.06 6.450182728000974 15.79627291654183 24.542887071588957 -1 0 0
249 28 2 0.06 6.502172595403829 16.523461901906465 22.945882909423098 -1 0 0
285 32 2 0.06 2.0253836046334177 16.059036786786407 27.227617135693386 1 1 0
248 28 2 0.06 7.688561615301736 15.241805306585947 23.3724998312071 -1 0 0
1305 145 4 0.418 3.62241683376719 20.09470154443197 23.408613455258667 1 0 0
1299 145 3 -0.6830000000000001 3.017088936913501 19.39223845022913 23.655675185296644 1 0 0
1857 207 3 -0.6830000000000001 5.407124334279046 21.519436322843696 23.350293653984167 0 0 0
1863 207 4 0.418 5.67582645302658 22.428701701748153 23.605723016016505 0 0 0
1855 207 1 -0.18 6.198939216555274 19.239447972320328 22.772097954746883 0 0 0
1974 220 3 -0.6830000000000001 14.222901399816518 15.370302545552855 21.9267395433642 0 -1 0
1931 215 2 0.06 4.799049225714931 18.009523647618984 26.777165364045104 0 0 -1
2153 240 5 0.145 12.963418949989745 27.62944841059796 20.22180437267148 0 0 -1
250 28 2 0.06 7.517465043460627 17.870077973221157 25.055559720055697 -1 0 0
251 28 2 0.06 8.654517382237426 17.566007590250116 23.744625580436143 -1 0 0
246 28 3 -0.6830000000000001 8.863098507376796 16.38143122773195 25.4850632402511 -1 0 0
1303 145 2 0.06 3.6133011378789153 20.15558630265724 25.33215952473668 1 0 0
1240 138 2 0.06 14.644749482654355 22.811338558035104 21.02981221331713 0 -1 1
1858 207 2 0.06 7.1144182317443745 18.722371370140507 22.461208555211726 0 0 0
2024 225 2 0.06 1.821580493874774 24.226453503259926 26.65870519997425 1 0 0
1928 215 5 0.145 5.265596007477353 18.944490305158936 28.61482586129282 0 0 -1
612 68 4 0.418 1.2698202228966873 16.63822825228651 22.765467028635705 0 1 0
1927 215 1 -0.18 5.66595888691103 18.55314300049205 27.170067741690772 0 0 -1
1778 198 2 0.06 4.560730443355326 17.72910914519052 20.626528760559026 0 -1 0
1980 220 4 0.418 13.249437148518037 15.506849201653832 22.057569882830784 0 -1 0
755 84 2 0.06 1.640303885195417 28.44166538363997 28.243040513182144 1 0 -1
1300 145 2 0.06 2.7377730978291144 17.797835305749132 25.53142013875413 1 0 0
2021 225 2 0.06 3.8213367531235147 23.318116832577836 25.503118704956194 1 0 0
859 96 2 0.06 6.7770210065006 22.367390589616434 27.326068812726575 1 -1 -1
1860 207 2 0.06 5.900282743126434 18.70064743457973 23.645790851683238 0 0 0
1862 207 2 0.06 7.341702235120267 20.67177289217119 23.717127993311486 0 0 0
1932 215 2 0.06 6.435152641742825 17.764645515723693 27.330176126551194 0 0 -1
1861 207 2 0.06 7.041210198844119 21.213560032584283 22.10936765104435 0 0 0
2060 229 2 0.06 14.947030122443781 15.655708687699137 25.17010825768225 1 -1 1
2018 225 5 0.145 2.118338281061244 23.164702767552058 26.648945566722915 1 0 0
1298 145 5 0.145 2.72119874129621 19.771084933775413 24.98639479645059 1 0 0
1304 145 2 0.06 2.0205746524574573 20.592835339359823 24.83801960872819 1 0 0
1930 215 2 0.06 5.843080551919392 19.475882581025807 26.554028527326032 0 0 -1
2023 225 2 0.06 1.659258918931521 22.52934670581321 25.889474594763847 1 0 0
856 96 1 -0.18 6.615401362663605 22.56934610390092 28.42169363811844 1 -1 -1
1297 145 1 -0.18 2.135579651383713 18.635691671924803 25.75895279086319 1 0 0
1856 207 5 0.145 6.548747668498005 20.661160355459366 22.974477369418565 0 0 0
861 96 2 0.06 5.694332921944049 22.088886469038847 28.65788104228684 1 -1 -1
2216 247 5 0.145 10.435474200165803 15.128446511877376 22.40380282929604 0 1 -1
1631 182 5 0.145 8.012555248288637 23.840537084596853 19.866674386009954 0 0 0
1250 139 2 0.06 14.302332059076729 20.613528309046025 27.68547552319206 0 -1 0
1638 182 4 0.418 6.625271910597983 25.172107690829286 19.924083523884065 0 0 0
252 28 4 0.418 9.083430100276775 16.98574490848494 26.230960088074326 -1 0 0
86 10 2 0.06 11.745915316950406 20.86181573283079 24.183438417873397 1 0 0
2222 247 2 0.06 9.667590582732123 15.661190251771156 21.83669998399759 0 1 -1
88 10 2 0.06 9.558522647980256 21.955109331287588 25.201647343553375 1 0 0
1924 214 2 0.06 2.2107392732891507 23.65383627632174 20.84394738226294 0 -2 0
1781 198 2 0.06 4.347783718063225 15.441475717489759 21.44026928692604 0 -1 0
280 32 1 -0.18 1.2435326969347353 15.551590354964135 27.76946282775736 1 1 0
87 10 2 0.06 12.205850326925662 20.536744805102515 25.885486639401705 1 0 0
82 10 1 -0.18 11.61281427171336 21.178811547983805 25.234412702527507 1 0 0
606 68 3 -0.6830000000000001 0.8537924226827355 15.909614675243603 22.347479044773642 0 1 0
1979 220 2 0.06 13.925094808273625 16.33385415446491 20.193826102303746 0 -1 0
1242 138 4 0.418 14.832845922063573 24.060980928650167 22.966079726930005 0 -1 1
803 90 5 0.145 11.404708234992166 17.919574004942234 27.594538094123116 1 0 -1
807 90 2 0.06 13.276077695166839 17.436479465843917 26.555139787193852 1 0 -1
177 20 2 0.06 11.619542195542287 18.167500798483346 20.4588634305504 0 0 0
175 20 2 0.06 11.416541965506024 19.864990424204017 20.415796924713234 0 0 0
179 20 2 0.06 9.358634907697951 19.72610850147082 21.937322570298235 0 0 0
180 20 4 0.418 10.361546987898194 19.139789433466298 23.60257072070793 0 0 0
802 90 1 -0.18 12.178792800716257 17.565925364418035 26.357593955349685 1 0 -1
84 10 3 -0.6830000000000001 9.498996041156314 19.917746466270835 25.370507358995276 1 0 0
90 10 4 0.418 9.76487241447801 19.271458335326173 25.98748809456452 1 0 0
804 90 3 -0.6830000000000001 10.02815285309499 17.83925411630399 27.445729455687477 1 0 -1
173 20 5 0.145 9.991103344944195 18.87563424202304 21.76172084611337 0 0 0
174 20 3 -0.6830000000000001 10.825481646059258 18.724039548578368 22.91534701615923 0 0 0
178 20 2 0.06 9.288927201460258 18.09643871676488 21.726049092953687 0 0 0
172 20 1 -0.18 10.854870001391811 18.92839393639654 20.455413955591716 0 0 0
805 90 2 0.06 12.098339477051942 18.368271200462495 25.59818853563008 1 0 -1
83 10 5 0.145 10.119314520246355 21.158359582456548 25.643978117189086 1 0 0
89 10 2 0.06 9.862639370434266 21.162928288204263 26.725068456302083 1 0 0
806 90 2 0.06 11.742773857636294 16.6729142330707 25.87027590260176 1 0 -1
1238 138 2 0.06 11.816349220017045 22.223151366217465 21.81931576303912 0 -1 1
1236 138 3 -0.6830000000000001 13.88580880709288 23.935902998971812 22.606716227074344 0 -1 1
810 90 4 0.418 9.552421062976528 17.603819939327742 28.298554216348087 1 0 -1
66 8 3 -0.6830000000000001 9.22007588012791 29.454260646701776 29.395345443223867 1 0 0
1252 140 1 -0.18 8.218857109172955 28.317883486841616 21.081219784386583 0 -1 0
809 90 2 0.06 11.681349263717513 17.195145953478864 28.33777504232456 1 0 -1
1253 140 5 0.145 7.511082586357678 29.4319907370653 20.36088704403077 0 -1 0
2197 245 1 -0.18 10.94873392287341 27.266827899759186 23.942593549190583 0 -1 0
1234 138 1 -0.18 12.477432384568028 22.63379387094482 21.10560710444946 0 -1 1
2223 247 4 0.418 11.541983716961594 16.766849422075204 22.545096535939336 0 1 -1
2157 240 2 0.06 14.475517429842073 26.398669853282257 21.14404068645578 0 0 -1
808 90 2 0.06 11.768890214949801 18.90247168927116 27.902789392938587 1 0 -1
85 10 2 0.06 11.901689835697498 22.236980129599658 25.37809776833135 1 0 0
1973 220 5 0.145 14.521761345370935 15.470206862962304 20.52680023328594 0 -1 0
1774 198 1 -0.18 3.5426229302752428 17.22031040581045 20.560447384967716 0 -1 0
862 96 2 0.06 7.884861293349607 20.823414248675135 28.93848181718456 1 -1 -1
857 96 5 0.145 7.691759113453018 21.888669446607224 29.262631386031906 1 -1 -1
1241 138 2 0.06 14.110523911935937 21.98594354893236 22.391444430806622 0 -1 1
1235 138 5 0.145 13.884214742020651 22.84257338549869 21.787924715877914 0 -1 1
2221 247 2 0.06 10.067986546064432 15.125400997571049 23.433063264183943 0 1 -1
193 22 2 0.06 14.578409118222922 24.614436371410342 24.927391704035635 0 -1 0
1734 193 2 0.06 7.835958306509593 23.381358837466117 25.483814564479587 1 0 0
1735 193 2 0.06 8.45778886627536 24.423258403601608 23.473107843669446 1 0 0
611 68 2 0.06 0.9861572016199565 15.215052900458574 24.151409649825553 0 1 0
2020 225 2 0.06 4.1614587010686765 23.692218787867397 27.182173111865396 1 0 0
1859 207 2 0.06 5.332264208489649 19.130406722361656 22.12425135382992 0 0 0
112 13 2 0.06 4.777580925500151 26.02958873039563 21.476434599271087 1 -1 -1
1733 193 2 0.06 8.336511403484806 24.728704007101847 26.123572061991048 1 0 0
1729 193 1 -0.18 7.580442284050207 24.36626919807231 25.454355363160516 1 0 0
1922 214 2 0.06 0.7062718551044357 21.883652488449464 22.771128726910057 0 -2 0
1780 198 2 0.06 2.75291028293086 15.286717163346363 20.389343303014137 0 -1 0
1918 214 1 -0.18 0.9093051736392224 22.322083763339585 21.792655451650333 0 -2 0
860 96 2 0.06 6.518447384051821 23.63141223522849 28.630573748523503 1 -1 -1
1332 148 4 0.418 2.898875908181254 23.2491573420942 29.066991891406772 1 1 -1
1775 198 5 0.145 3.7283723119896433 15.697195709769 20.55972280122557 0 -1 0
114 13 2 0.06 5.363138858017885 27.34465620974275 20.40514339209517 1 -1 -1
109 13 1 -0.18 4.574667043896692 27.02058745839836 21.046994866106687 1 -1 -1
110 13 5 0.145 3.316009971143402 27.02325243326616 20.215567199360322 1 -1 -1
2005 223 2 0.06 13.824739789970423 16.331117375166023 28.99629474114208 0 -1 -1
2017 225 1 -0.18 3.613868582682431 23.00614025325602 26.519821919280545 1 0 0
1731 193 3 -0.6830000000000001 6.436496858306187 24.40148315182492 23.341813031824266 1 0 0
1920 214 3 -0.6830000000000001 1.123226461202675 24.575368677887006 22.189762387967654 0 -2 0
756 84 4 0.418 3.701196093863413 28.307465419269747 29.00232213096743 1 0 -1
557 62 2 0.06 2.6050039604062283 25.493656319380122 24.143686286198715 1 -1 -2
555 62 2 0.06 1.0419456104916087 27.231656115678113 25.046694449066834 1 -1 -2
1732 193 2 0.06 6.594035567626725 24.503505180625417 25.92342901931726 1 0 0
554 62 2 0.06 2.056042293999081 26.457405743797686 26.343430292101715 1 -1 -2
552 62 3 -0.6830000000000001 4.303170213257154 26.37249442890556 25.029303409821146 1 -1 -2
558 62 4 0.418 4.8254619455033305 25.796250299366484 24.402384532952965 1 -1 -2
556 62 2 0.06 3.072546339208325 27.213083280606966 23.5848880725787 1 -1 -2
113 13 2 0.06 4.487539887082999 27.870410704025772 21.75012187770897 1 -1 -1
1919 214 5 0.145 1.8529599630042828 23.463758705247848 21.870754877866716 0 -2 0
1314 146 4 0.418 4.688366811838847 26.923042724296742 26.69433204810111 0 0 -2
1308 146 3 -0.6830000000000001 4.685146278602631 27.180556773435377 27.608092717909024 0 0 -2
550 62 1 -0.18 2.0665065663488003 27.160487285935936 25.44997070277848 1 -1 -2
1313 146 2 0.06 6.401611303762115 26.08750976319164 27.925846849024346 0 0 -2
1312 146 2 0.06 5.002474836001762 25.45382162264334 28.630611938748068 0 0 -2
1730 193 5 0.145 7.618842718067692 24.863625231345246 23.963436633348742 1 0 0
1736 193 2 0.06 7.773835051328571 25.956158935451768 23.922612459012512 1 0 0
1307 146 5 0.145 5.532185585534452 26.338966848151387 28.42334001346933 0 0 -2
111 13 3 -0.6830000000000001 2.131926688266483 27.11894083541177 21.0134211304752 1 -1 -1
551 62 5 0.145 3.0090971862575437 26.51133904297282 24.44388903351299 1 -1 -2
117 13 4 0.418 1.6262980052333205 27.89269699418403 20.8460272912194 1 -1 -1
1475 164 2 0.06 7.820254352075628 27.581441892183143 25.36990021892327 0 1 -1
553 62 2 0.06 2.5228685546374052 28.17415349851084 25.635743351563853 1 -1 -2
1925 214 2 0.06 2.633014626275536 23.227664662468676 22.572692924544377 0 -2 0
1926 214 4 0.418 1.694758877461767 25.312326603336857 22.030646892522334 0 -2 0
1737 193 4 0.418 6.660483137634594 24.423076969194923 22.38746721753772 1 0 0
1302 145 2 0.06 2.3233156412519955 18.754795040912065 26.899168371024018 1 0 0
1632 182 3 -0.6830000000000001 7.101083821497004 24.61320913481444 20.56417773966784 0 0 0
1923 214 2 0.06 1.4050483550798192 21.47991081675805 21.22533448405835 0 -2 0
2022 225 2 0.06 3.960558353456377 21.991877192962775 26.770166547823806 1 0 0
1301 145 2 0.06 1.0547966140500682 18.519643411680377 25.647452612204184 1 0 0
1634 182 2 0.06 9.790125401129204 22.660747438271144 20.261868180883354 0 0 0
1239 138 2 0.06 12.661391233924556 21.890251312658663 20.355750000725926 0 -1 1
2019 225 3 -0.6830000000000001 1.68494274154936 22.60627890177765 27.81890378900445 1 0 0
2159 240 2 0.06 12.836772441298015 28.427429441505502 20.98806704637432 0 0 -1
1933 215 2 0.06 4.207065741214006 19.16675324467596 28.56886121005214 0 0 -1
283 32 2 0.06 1.6472447820567047 15.323131187688368 28.79118586821847 1 1 0
2217 247 3 -0.6830000000000001 11.686429209554335 15.821054119187645 22.402117813237346 0 1 -1
858 96 3 -0.6830000000000001 8.911575267242956 22.609207699883605 29.299061620310567 1 -1 -1
2028 226 3 -0.6830000000000001 10.167213898288848 24.721941896321688 27.92449858078772 1 -1 -1
1257 140 2 0.06 7.669322878202435 27.933236340599613 21.9136371714698 0 -1 0
1405 157 1 -0.18 9.526968097538635 15.028533321409641 29.014647131353513 0 0 -1
2025 225 4 0.418 0.9407624107810353 23.12371470711051 28.08800003284596 1 0 0
2160 240 4 0.418 11.936876714163962 26.22738106974925 21.063791987353312 0 0 -1
1472 164 2 0.06 6.33807776945434 29.268750476182312 26.487920348220378 0 1 -1
1635 182 2 0.06 8.521889869808405 22.45412334031157 21.49239436235515 0 0 0
1410 157 2 0.06 10.455801618400029 15.317468718393618 29.47486028794681 0 0 -1
1255 140 2 0.06 9.257485700429623 28.67205568294731 21.511970411703132 0 -1 0
1934 215 2 0.06 5.744461228334853 19.843350156197005 28.7718714664529 0 0 -1
72 8 4 0.418 8.890748262940651 29.177849147446864 28.53111805577806 1 0 0
2027 226 5 0.145 10.798909613844506 25.314741666427338 29.01510171212165 1 -1 -1
2203 245 2 0.06 10.513451703745089 25.251495908152897 24.641096760577426 0 -1 0
2034 226 4 0.418 9.766372901982953 23.937563328737745 28.337209289332584 1 -1 -1
5 1 2 0.06 14.775060697824879 18.62076370674673 23.510108236117567 0 0 0
1476 164 4 0.418 9.429502555806565 27.518298559586462 26.772295088862748 0 1 -1
2000 223 5 0.145 14.81177185478545 15.893814865839277 28.99359934413441 0 -1 -1
2199 245 3 -0.6830000000000001 11.416451771805106 25.29237477338794 22.784614397598716 0 -1 0
1256 140 2 0.06 8.482364341507743 27.579759128449503 20.35769245017017 0 -1 0
2029 226 2 0.06 10.971814078633104 27.262253182099094 27.990123783128226 1 -1 -1
2201 245 2 0.06 11.065640811567103 27.72796802989147 24.986419087404684 0 -1 0
1474 164 2 0.06 8.974846316490074 28.93399597345683 25.003659537242513 0 1 -1
2205 245 4 0.418 12.243854268697731 24.807926159962363 22.754114093496646 0 -1 0
2200 245 2 0.06 11.6908645472493 27.698742338007413 23.243859018908246 0 -1 0
1470 164 3 -0.6830000000000001 8.895899268345543 28.222973609774712 26.90848651822538 0 1 -1
1469 164 5 0.145 8.213576125753065 28.55413865597683 25.72538186384822 0 1 -1
2152 240 1 -0.18 14.349873982128518 27.060600637266255 20.25050804228954 0 0 -1
2204 245 2 0.06 12.30619752054063 25.662023963828055 24.35749267458032 0 -1 0
1633 182 2 0.06 9.475547046699953 23.976285052256124 21.37946557809395 0 0 0
2202 245 2 0.06 9.9478551425934 27.392093396739007 23.48651650950594 0 -1 0
2026 226 1 -0.18 11.619037305850256 26.586854979179463 28.576701202095073 1 -1 -1
1630 182 1 -0.18 9.014857526741181 23.187077750950266 20.79762120001491 0 0 0
2030 226 2 0.06 12.426895746232338 26.190143995244803 27.90954216994932 1 -1 -1
2198 245 5 0.145 11.29750848069276 25.803304287010427 24.065663037277332 0 -1 0
1237 138 2 0.06 12.113966534186009 23.542768898917615 20.692120770783433 0 -1 1
2154 240 3 -0.6830000000000001 11.985442947506103 26.625226039537118 20.170448765120085 0 0 -1
1779 198 2 0.06 2.8903529450652767 17.49564057346656 21.364468658890253 0 -1 0
1412 157 2 0.06 7.471395546685183 15.580543589631219 29.133191395491934 0 0 -1
749 84 5 0.145 2.038896956383508 29.265148650617505 28.7799321274652 1 0 -1
1413 157 4 0.418 7.685976529814626 17.577558830290677 29.34910786284671 0 0 -1
2031 226 2 0.06 11.993623801569827 27.11301439981478 29.387840851671303 1 -1 -1
1311 146 2 0.06 6.585791997488636 27.77521146901161 29.467359543347513 0 0 -2
1265 141 2 0.06 14.678082244784425 28.539434499048326 29.441431445047098 0 -1 0
2178 242 4 0.418 6.21743025300997 15.213059053694938 19.860469325708173 1 1 0
1258 140 2 0.06 6.667717220258865 28.926415769667244 19.919071991158404 0 -1 0
1144 128 1 -0.18 20.14707787916801 3.264771397064044 7.188127491044823 -1 0 1
565 63 2 0.06 19.081761292472308 3.03480543475965 3.267450773910195 0 0 1
560 63 5 0.145 19.834668304607668 2.6089112385177415 2.579739814293749 0 0 1
1145 128 5 0.145 19.039429221022033 2.600451614752888 8.047425566098186 -1 0 1
1150 128 2 0.06 19.212287446522893 1.4602298092558559 8.23144066872014 -1 0 1
1151 128 2 0.06 18.0761052231595 2.68678067627338 7.601040702597733 -1 0 1
563 63 2 0.06 21.9945119614749 2.5671077454382383 2.4499340532477554 0 0 1
559 63 1 -0.18 21.16515342359476 2.792323668538926 3.2177947284598845 0 0 1
1148 128 2 0.06 20.048313464867626 2.9003528098141933 6.174752938997574 -1 0 1
1149 128 2 0.06 21.17304316039558 3.062455697251864 7.531766684870449 -1 0 1
594 66 4 0.418 17.008888334615484 2.0362541593071226 1.1742546447621618 0 0 0
1147 128 2 0.06 19.94303224439112 4.3556982908607935 7.212352580824875 -1 0 1
950 106 2 0.06 15.094985300598868 3.0506295620276616 6.682844672666682 0 0 0
1986 221 2 0.06 22.761082053003236 0.7616201714989019 7.130532752342166 0 1 0
628 70 2 0.06 29.399570528295996 7.038391994182 2.857216183228634 -1 -1 1
2225 248 5 0.145 18.149567404721303 6.446649737718107 9.246351583526174 0 1 0
2226 248 3 -0.6830000000000001 16.88170574808226 6.814914416095136 8.625255120528713 0 1 0
564 63 2 0.06 21.42859326193087 2.1289517395001964 4.0675049485877395 0 0 1
2227 248 2 0.06 18.756852658751313 8.502139367167175 9.730510254326832 0 1 0
562 63 2 0.06 21.279977582678363 3.8587158016430374 3.576937967969011 0 0 1
777 87 3 -0.6830000000000001 29.0736239111744 10.587022021433915 3.108470446777721 -1 0 0
588 66 3 -0.6830000000000001 16.96616759336984 3.0292852430542268 1.1976110419113193 0 0 0
1988 221 2 0.06 22.012334997397772 1.4409162201419332 9.542082655909788 0 1 0
566 63 2 0.06 19.481727411544277 1.5566337811155182 2.5368911050281673 0 0 1
567 63 4 0.418 18.65871167761422 3.251316931764102 1.3610997621399878 0 0 1
561 63 3 -0.6830000000000001 19.640532284932426 3.255624956134911 1.3714401471739281 0 0 1
1146 128 3 -0.6830000000000001 18.934126001515864 3.2432371267014344 9.30352137946742 -1 0 1
1512 168 4 0.418 20.158829542986965 12.112066503862398 9.123133890598414 0 0 0
782 87 2 0.06 28.62048894971607 12.011032873163668 4.5972104213620195 -1 0 0
1982 221 5 0.145 23.090472658255713 1.434571276126387 9.222366973526283 0 1 0
835 93 2 0.06 21.411549964283417 6.979335252005874 8.975253266505183 -1 0 1
830 93 5 0.145 22.44496169676897 7.317011618249065 8.95751053036054 -1 0 1
948 106 3 -0.6830000000000001 15.955520406802517 1.5882603357426388 9.118399067621828 0 0 0
2230 248 2 0.06 17.892199461941892 5.491380669603597 9.817074223750836 0 1 0
1897 211 2 0.06 28.614367422584415 3.61084201845254 3.568351862863432 -1 0 1
1789 199 2 0.06 15.416405062599807 12.313583948581583 6.0553828273011785 -1 0 1
2232 248 4 0.418 16.150789717303383 6.915579222305963 9.259489275637865 0 1 0
2231 248 2 0.06 18.913585134491193 6.167459511884197 8.557454439636238 0 1 0
377 42 2 0.06 22.251576483071908 13.358775376845191 2.3947519020216372 -1 1 0
785 88 5 0.145 28.141845749041202 14.779556333389046 8.224997345430104 0 1 1
961 107 2 0.06 26.86207457504402 10.027733820045665 10.062064761277874 0 1 0
1514 169 5 0.145 27.13974758185219 6.470249952565431 9.974049857529534 -1 1 0
1623 181 3 -0.6830000000000001 21.387702006545055 4.093768068137161 10.072015866315532 1 0 0
1535 171 2 0.06 17.984299379124842 14.699285238379801 4.227547052566116 0 -1 1
954 106 4 0.418 16.275733016393094 1.6496081256752622 10.037495335946563 0 0 0
1513 169 1 -0.18 27.414987868640118 6.703314449230162 8.490968737447336 -1 1 0
904 101 2 0.06 15.545808661327198 6.904024918164183 5.450133064319864 0 0 1
658 74 1 -0.18 25.65609273336476 12.519457948021207 0.9403963205222312 -1 0 0
1871 208 2 0.06 21.913626776271947 5.839727943794056 0.9071217981727726 1 0 1
836 93 2 0.06 22.621517474417708 7.716772081385621 9.958742193984289 -1 0 1
833 93 2 0.06 22.074852905231232 7.916447848106466 6.993257851722193 -1 0 1
357 40 2 0.06 24.963575114246993 3.6482685890328135 0.9818477508890848 0 1 2
1867 208 2 0.06 21.26069290784973 8.276184283547844 1.1798403995219107 1 0 1
2081 232 5 0.145 24.5780268203808 9.057335315005542 2.547804159089361 -1 2 1
831 93 3 -0.6830000000000001 23.31380694051827 6.234623024515713 8.674918092779834 -1 0 1
346 39 2 0.06 27.876534278936624 2.0684716917905073 7.856596987256709 -1 1 1
953 106 2 0.06 15.790653608121948 3.6027438164221026 9.018135062967945 0 0 0
1701 189 4 0.418 24.67978062302153 1.8610938823549488 4.635384619926834 -1 0 1
403 45 2 0.06 22.875146543106382 4.3332617431386655 6.1693533446543904 -1 1 1
404 45 2 0.06 24.586381674626466 4.50687799044505 6.764257214727483 -1 1 1
400 45 2 0.06 25.325431274722504 4.458214207066486 4.248296560897186 -1 1 1
1983 221 3 -0.6830000000000001 23.384528449369675 2.7411953779890643 8.802753691983353 0 1 0
401 45 2 0.06 24.0759511683384 5.751258157929335 4.526778435960284 -1 1 1
398 45 5 0.145 23.93737595652427 4.196025860938798 5.9237037184053225 -1 1 1
405 45 4 0.418 23.934012628997813 2.64545539746359 6.836293734360454 -1 1 1
402 45 2 0.06 23.707734660306294 4.217484899633774 3.6817912756001085 -1 1 1
399 45 3 -0.6830000000000001 24.1059986733097 2.813809008874956 5.915630696972024 -1 1 1
397 45 1 -0.18 24.273934614276996 4.679570916344704 4.517899219686601 -1 1 1
959 107 2 0.06 24.648390991814047 10.490700883293345 10.121335513073555 0 1 0
1700 189 2 0.06 25.029770641646515 2.127788773298064 2.697176468240377 -1 0 1
1896 211 2 0.06 28.266794976023128 3.0498315996917107 5.935762249021164 -1 0 1
1695 189 3 -0.6830000000000001 25.036723720484623 1.0038589260619797 4.298342324810788 -1 0 1
1694 189 5 0.145 24.899396850716194 1.1130961422283163 2.8930338444410935 -1 0 1
1699 189 2 0.06 23.865959704829294 0.9881715798959202 2.6435058590154363 -1 0 1
1989 221 4 0.418 22.813136549910396 3.33516984451937 9.200266443396314 0 1 0
783 87 4 0.418 29.37158236633897 11.261908703455791 2.4791374601813203 -1 0 0
1817 202 2 0.06 17.995533424530663 14.050187410895473 9.572363094480508 -1 0 1
622 70 1 -0.18 28.20104288254508 6.017898960733053 1.4481443295435992 -1 -1 1
627 70 2 0.06 27.167935781755624 5.936055979660461 1.1349053676330463 -1 -1 1
1891 211 1 -0.18 29.199445555577334 3.563478459221269 5.744673551721352 -1 0 1
625 70 2 0.06 28.456962887917342 5.056576416672329 1.924348131044029 -1 -1 1
1894 211 2 0.06 28.939494035380456 4.570955172675249 6.210873905932698 -1 0 1
829 93 1 -0.18 22.634331541996147 8.32947429718012 7.855708602940457 -1 0 1
347 39 2 0.06 29.120350710929237 1.2718981809862955 8.843963315741435 -1 1 1
1506 168 3 -0.6830000000000001 20.139611126988235 11.25169511959489 9.590779453254259 0 0 0
834 93 2 0.06 23.685818155440742 8.446153578295482 7.575145055927383 -1 0 1
1865 208 5 0.145 20.89400740488024 6.223493457957135 0.6928470066468287 1 0 1
623 70 5 0.145 28.41711063315814 7.112914138068794 2.3864345290448146 -1 -1 1
1517 169 2 0.06 28.44848742395277 6.697672285087696 8.187335278687222 -1 1 0
779 87 2 0.06 28.861971452290206 9.177015588493086 5.306295331889519 -1 0 0
907 101 2 0.06 15.412212788428858 7.984528127282696 3.2033257714399324 0 0 1
1516 169 2 0.06 26.91796054167699 5.964362012867691 7.9370628676900505 -1 1 0
776 87 5 0.145 29.078710851667495 11.028699699334602 4.4137487045850285 -1 0 0
1755 195 4 0.418 17.127123994470082 8.201686993611204 6.970832213077362 0 0 0
1753 195 2 0.06 19.238801654878365 7.7876724143180915 6.909823519347929 0 0 0
1831 204 2 0.06 18.94411306955395 13.737771506187052 6.946404900551117 -1 0 0
947 106 5 0.145 15.184366150570733 2.727058237103723 8.904793667185983 0 0 0
2249 250 2 0.06 17.395764518053916 11.018207526153493 9.058749649637225 0 0 0
348 39 2 0.06 27.773164422035833 2.0423552945292673 9.69130949798253 -1 1 1
1110 124 3 -0.6830000000000001 21.329295258202933 13.853001268695355 8.991916511347299 0 0 0
629 70 2 0.06 27.674281881046817 6.93043114446905 3.101972093666298 -1 -1 1
1834 204 2 0.06 20.282767563707694 13.7193867865149 4.6126855679041014 -1 0 0
1749 195 3 -0.6830000000000001 17.48795971901086 8.79143268108168 6.331935409762016 0 0 0
1754 195 2 0.06 18.522663090913838 7.228720875901572 5.38429000860465 0 0 0
1748 195 5 0.145 18.69487459750549 8.109617695449796 6.01322471204653 0 0 0
81 9 4 0.418 19.784947023769313 12.251465820960117 2.3651671203573255 0 0 0
1830 204 3 -0.6830000000000001 21.459301199723058 13.575966587532871 6.317668805768248 -1 0 0
1835 204 2 0.06 20.721329948838097 12.108985725682182 5.142304941858512 -1 0 0
1832 204 2 0.06 19.488059792980465 12.137173261599067 7.151106194187417 -1 0 0
1137 127 3 -0.6830000000000001 26.344344522643276 12.700857501491825 6.210315614417802 0 1 0
1828 204 1 -0.18 19.248058677398035 12.868865814749734 6.402706428370555 -1 0 0
2243 250 5 0.145 16.455738108795863 10.602437113254453 9.451981640076069 0 0 0
2248 250 2 0.06 16.519570070214534 9.70543135228499 9.874699264693946 0 0 0
1152 128 4 0.418 18.27693630674134 2.898033457805791 9.916814093613771 -1 0 1
832 93 2 0.06 22.256920113175234 9.263265324450305 8.156839580912308 -1 0 1
74 9 5 0.145 18.01538374784922 11.520979512190213 2.1704090461367125 0 0 0
75 9 3 -0.6830000000000001 18.95209566678048 12.373622628883764 2.785355302380027 0 0 0
2244 250 3 -0.6830000000000001 15.65497273400721 10.48297684820968 8.343070958293373 0 0 0
2250 250 4 0.418 16.086944474849727 9.89207627206318 7.791265187007669 0 0 0
1752 195 2 0.06 20.57076243013126 8.515790206337872 4.945338438331199 0 0 0
1751 195 2 0.06 19.213996751819508 9.208539080039015 4.180335259898001 0 0 0
1747 195 1 -0.18 19.60364395616466 8.992494424392072 5.134007690427192 0 0 0
77 9 2 0.06 16.155015577467843 12.593059851544883 2.6641169178795163 0 0 0
73 9 1 -0.18 16.64243249248871 11.607692020107528 2.768487631627985 0 0 0
1750 195 2 0.06 19.71774938966255 9.918443093535917 5.669453733486091 0 0 0
76 9 2 0.06 15.934582363934323 10.918614074070366 2.2920861762226394 0 0 0
78 9 2 0.06 16.816678769386613 11.430624131379908 3.8224352756690854 0 0 0
1833 204 2 0.06 18.434770330432812 12.528212334216843 5.793005269019878 -1 0 0
1836 204 4 0.418 22.240549799247276 13.900418328956423 5.761221832644753 -1 0 0
1829 204 5 0.145 20.48897051942881 13.078263127580522 5.5001597887052585 -1 0 0
1116 124 4 0.418 21.161467283915407 13.809499236885864 8.009691212688237 0 0 0
1084 121 2 0.06 15.282497533862138 1.746153816377223 4.77410008745359 1 0 0
457 51 2 0.06 28.40538104476309 0.566951164156622 4.551241449837989 0 1 1
80 9 2 0.06 18.47937118753883 10.559141764127261 2.1527223270576687 0 0 0
593 66 2 0.06 15.08585680170923 2.733602290712398 0.7900540844979529 0 0 0
837 93 4 0.418 23.0454003337231 5.4502737809556585 9.102824833249393 -1 0 1
1870 208 2 0.06 20.302129239735116 5.985813933617807 1.6209492359859934 1 0 1
1135 127 1 -0.18 24.355342589268943 11.780470637153401 7.139159425526642 0 1 0
1085 121 2 0.06 15.664347069760094 2.9088139586537145 3.6358773220387093 1 0 0
2086 232 2 0.06 25.430955839361317 9.303770613095192 1.9020597306353868 -1 2 1
660 74 3 -0.6830000000000001 25.24169139250582 12.311536861452751 3.367984642329121 -1 0 0
780 87 2 0.06 27.264202950885768 9.804496759926955 4.797998098748548 -1 0 0
1987 221 2 0.06 23.892295149025777 1.1917721453141026 9.991143212195043 0 1 0
2087 232 2 0.06 25.053158516756532 9.161431138088338 3.553157583333874 -1 2 1
778 87 2 0.06 28.104779217632185 10.469497488614843 6.232948950184821 -1 0 0
371 42 5 0.145 22.757282592232613 14.34031017726255 2.755677189015278 -1 1 0
2083 232 2 0.06 23.22744739226122 7.360715544170926 2.9941686216532934 -1 2 1
1136 127 5 0.145 25.334601820658946 12.908126128024826 7.146780775320778 0 1 0
372 42 3 -0.6830000000000001 23.240181431987573 14.135142942413044 4.0452136881854885 -1 1 0
2084 232 2 0.06 24.871355383871474 6.930650245053742 2.535677379103261 -1 2 1
2085 232 2 0.06 23.829542573126588 7.400123421915662 1.2243734873583683 -1 2 1
659 74 5 0.145 26.185021410491302 12.718397249216856 2.400187040030959 -1 0 0
2080 232 1 -0.18 24.056191730142686 7.568622999488017 2.326099663443898 -1 2 1
1518 169 2 0.06 27.10924263999182 7.566978387563051 8.01817625297532 -1 1 0
665 74 2 0.06 26.96265335310938 11.979664874064236 2.467731554490562 -1 0 0
790 88 2 0.06 27.401124820254438 14.154647936786372 8.90685697029809 0 1 1
666 74 4 0.418 25.638080104646015 12.433016191595588 4.227113781328546 -1 0 0
775 87 1 -0.18 28.25805190442705 10.031543083722791 5.244880506874786 -1 0 0
786 88 3 -0.6830000000000001 28.74560843175241 14.012540984771636 7.213681490920039 0 1 1
1142 127 2 0.06 24.818998850503363 13.768128340886774 6.856026614399869 0 1 0
1140 127 2 0.06 23.41136934309869 11.90884398551651 7.688774150089712 0 1 0
630 70 4 0.418 28.435551537472236 9.068190741836876 2.2942718734955636 -1 -1 1
1114 124 2 0.06 23.141328066362526 14.648740833476745 8.428709743369062 0 0 0
664 74 2 0.06 26.542945297555015 13.76487485403963 2.49692241156038 -1 0 0
624 70 3 -0.6830000000000001 28.27497955032065 8.326827274451833 1.6787055339721004 -1 -1 1
729 81 4 0.418 22.59184737955897 10.776299995372515 0.961806490715277 0 1 1
378 42 4 0.418 24.085489910828763 13.667679785575231 3.9659203282801174 -1 1 0
376 42 2 0.06 23.598276308867568 14.492924837811442 2.0684107526155247 -1 1 0
1138 127 2 0.06 24.85877000882941 10.949256764861008 7.585078023644169 0 1 0
1139 127 2 0.06 24.042677121435418 11.683005198123626 6.14145063711384 0 1 0
2082 232 3 -0.6830000000000001 23.515175166986317 9.952460089875732 2.220264226983974 -1 2 1
2088 232 4 0.418 23.89920387944767 10.800123616938254 2.3528493639760217 -1 2 1
1141 127 2 0.06 25.76294052124284 12.968011196516454 8.171950079191259 0 1 0
1143 127 4 0.418 27.106903618379057 13.255507679758416 6.513880308953204 0 1 0
343 39 1 -0.18 28.008542941351983 1.5046935590332402 8.803996015631597 -1 1 1
1109 124 5 0.145 22.29139932398104 14.877281421319474 9.117492720971203 0 0 0
79 9 2 0.06 18.033415423232007 11.918587510881832 1.1749640503561256 0 0 0
1629 181 4 0.418 20.452417896461498 4.00990502097761 9.879126914369182 1 0 0
1510 168 2 0.06 22.11815237991148 11.169331782418693 9.840915776058555 0 0 0
1728 192 4 0.418 16.624235380744388 0.7137787643727078 7.646551955410707 1 1 0
661 74 2 0.06 24.569621183469877 12.827776277786738 0.8031628242165287 -1 0 0
1696 189 2 0.06 27.000988641650878 0.7190428750145965 2.216239976598917 -1 0 1
792 88 4 0.418 29.195257312705348 13.311041586890667 7.667548063354665 0 1 1
1519 169 2 0.06 26.09499178743682 6.418522650752479 9.982298018003707 -1 1 0
662 74 2 0.06 25.72316951524342 11.473229539790292 0.6181666526539686 -1 0 0
626 70 2 0.06 28.835035975609536 6.084578625529684 0.5816567178128267 -1 -1 1
741 83 3 -0.6830000000000001 19.21319778958219 5.7034666096290785 14.82746329210344 0 0 0
747 83 4 0.418 20.08439262035914 5.41798642187171 15.170095566626914 0 0 0
1209 135 3 -0.6830000000000001 17.30262154243004 3.947347970170216 13.8645033054672 -1 0 -1
1215 135 4 0.418 17.97918932241432 4.643659256741778 14.13045195945221 -1 0 -1
1419 158 2 0.06 22.506105957119395 5.51517727651393 18.319115980427817 -1 0 0
1208 135 5 0.145 16.406777661281374 3.7202598963542806 14.930016659181257 -1 0 -1
740 83 5 0.145 19.077172975856648 7.0922078659907815 15.20825266313691 0 0 0
743 83 2 0.06 17.330870661547614 7.0980260699710715 13.961092005032489 0 0 0
744 83 2 0.06 18.842324723110714 7.858629694619319 13.43097584076879 0 0 0
1414 158 1 -0.18 21.4455953776041 5.192408294720031 18.48759135323369 -1 0 0
739 83 1 -0.18 18.167249021561638 7.723683759155078 14.23243502865488 0 0 0
745 83 2 0.06 18.69040116699776 7.1960020084351175 16.200862798720145 0 0 0
1418 158 2 0.06 20.716246178784225 5.979334489857431 18.290835455055458 -1 0 0
1416 158 3 -0.6830000000000001 21.435931233903297 4.789560752446087 16.040029063410252 -1 0 0
746 83 2 0.06 19.97117355815012 7.779591492288463 15.280265645195907 0 0 0
1421 158 2 0.06 21.87073548812662 3.3067502549850545 17.29154595255804 -1 0 0
1415 158 5 0.145 21.236740424386404 4.193058574221318 17.33827552008075 -1 0 0
1422 158 4 0.418 22.3548994249064 4.838028087103357 15.851738797727865 -1 0 0
1946 217 5 0.145 18.00365959458982 0.92705181702935 12.05295356953423 0 1 0
1420 158 2 0.06 20.200870725132305 3.9473738087669807 17.429949313850813 -1 0 0
1951 217 2 0.06 17.768494458147146 1.0092118193080264 13.11523508089761 0 1 0
613 69 1 -0.18 20.86114769124893 0.9852495300421538 15.030828228266016 0 1 -1
1176 131 2 0.06 27.095744773733614 11.18635970682333 18.869918547380074 -1 0 -1
1953 217 4 0.418 17.663880040392314 2.8150814204643524 12.32957267897183 0 1 0
1628 181 2 0.06 20.732885923890905 4.10643028918366 12.137596039429589 1 0 0
1947 217 3 -0.6830000000000001 17.625682467702497 2.1880130888984146 11.53663032913868 0 1 0
2229 248 2 0.06 17.840647328866766 7.825895808764737 10.964347259206015 0 1 0
1622 181 5 0.145 21.481388312883013 4.557158260535628 11.417954908357276 1 0 0
1627 181 2 0.06 21.256003596904172 5.6163592110557845 11.516271723856384 1 0 0
1213 135 2 0.06 16.85176027889497 3.2259179998481278 15.78600117236106 -1 0 -1
980 109 2 0.06 25.132324552764814 5.170929215041613 18.24733715517293 1 1 0
1852 206 2 0.06 16.696663798904822 1.2970693664166713 17.07556214400747 -1 1 0
1850 206 2 0.06 16.96626813942396 0.5419547859968185 19.221304113034826 -1 1 0
2247 250 2 0.06 16.779462074046116 12.008670612577268 11.106148896719802 0 0 0
1823 203 2 0.06 29.28689879515578 1.0353757972484634 14.636734786508844 -1 0 0
2141 238 2 0.06 21.70013615000132 0.7350636892205289 19.128290434658084 0 1 -1
2245 250 2 0.06 15.318312722505162 11.196607307359947 11.337492169378823 0 0 0
1525 170 2 0.06 16.3689078989214 12.574437395184725 18.081240360573453 0 1 0
984 110 3 -0.6830000000000001 15.14943843386097 7.204600736960441 18.796488705554673 0 0 0
599 67 2 0.06 29.222818266729554 7.453118657719613 13.871550233223294 0 -1 0
990 110 4 0.418 15.051218372573736 7.904996564473453 18.117128500493926 0 0 0
1950 217 2 0.06 20.272104416299598 1.3459087340394518 11.76959090047419 0 1 0
141 16 2 0.06 28.102665401899394 4.60787989751952 12.972523060607703 -1 1 0
1417 158 2 0.06 21.191140579461432 4.587719798287117 19.37480132071547 -1 0 0
1526 170 2 0.06 15.52703734294625 11.148969478626924 18.28869370720591 0 1 0
955 107 1 -0.18 25.060800233165367 10.655013020339396 11.003480828495395 0 1 0
1811 202 5 0.145 18.492674553984713 14.87244154089155 10.186446794716465 -1 0 1
978 109 2 0.06 27.800525214731593 3.8553840193355646 18.521947792269465 1 1 0
499 56 2 0.06 23.137790254553764 6.276022577952601 13.9340203426678 0 0 0
142 16 2 0.06 25.555476586354487 4.079158031796531 13.122873883269214 -1 1 0
1522 170 1 -0.18 15.412573270099404 12.219185784811016 18.58539653363485 0 1 0
1626 181 2 0.06 23.165612499284506 3.3251499358568024 11.781845128077062 1 0 0
1625 181 2 0.06 23.65381551933158 4.926997495355104 11.349594773616179 1 0 0
618 69 2 0.06 21.179017318590034 1.2490503423720494 14.085809624527245 0 1 -1
1520 169 2 0.06 27.489141443417722 7.268815031902 10.637890852257694 -1 1 0
1207 135 1 -0.18 15.229421232806926 2.8795424249586667 14.452003311513787 -1 0 -1
936 104 4 0.418 20.444617627732157 10.667512187256813 19.47407220219904 0 0 -1
1482 165 2 0.06 28.17874738443112 12.786256094575513 12.917164242230474 -1 1 -1
1812 202 3 -0.6830000000000001 19.54794971405626 14.39174794388013 10.967114195726172 -1 0 1
1515 169 3 -0.6830000000000001 27.798064078281413 5.302251213412734 10.357193256995798 -1 1 0
504 56 4 0.418 25.72221377853679 5.032171089957885 15.883768216605437 0 0 0
1521 169 4 0.418 27.1742131597627 4.61124847587037 10.653608643015605 -1 1 0
977 109 2 0.06 26.193682204127988 3.1536202517548024 18.2679831695148 1 1 0
498 56 3 -0.6830000000000001 24.852603613615884 5.315427527886602 15.630062490161222 0 0 0
1624 181 2 0.06 23.00116355829799 4.613502051059466 12.938078887658405 1 0 0
138 16 3 -0.6830000000000001 26.243002067409364 3.0474241588708697 11.592851308623025 -1 1 0
603 67 4 0.418 27.69902751066659 6.674878133804298 16.70480550005758 0 -1 0
497 56 5 0.145 24.927840688498577 6.586507546452607 15.152690317404288 0 0 0
1621 181 1 -0.18 22.8684459374878 4.330159475372557 11.878163344366461 1 0 0
136 16 1 -0.18 27.71190296005208 3.6892251057520684 13.413253867653022 -1 1 0
975 109 3 -0.6830000000000001 26.80845123485748 6.453793102323631 18.313707504040785 1 1 0
976 109 2 0.06 27.027741899078798 4.238019616489488 17.038544048772046 1 1 0
973 109 1 -0.18 26.869485716394514 4.0289181733562796 18.06624276697267 1 1 0
144 16 4 0.418 26.672558323064194 2.1962268055258347 11.520841582502841 -1 1 0
503 56 2 0.06 25.68982810744302 6.572718395583513 14.334885058846549 0 0 0
496 56 1 -0.18 23.549000272942138 7.0753073511445015 14.544067185038143 0 0 0
597 67 3 -0.6830000000000001 28.057310967720916 6.764935369951045 15.81656075639548 0 -1 0
137 16 5 0.145 26.30225273154474 3.3128297901819908 12.967218024377415 -1 1 0
447 50 2 0.06 24.44973792572486 14.636126830335598 19.29807746395555 -1 0 -1
981 109 4 0.418 26.66140305374188 7.139685502365492 19.000768051292148 1 1 0
1211 135 2 0.06 15.502734684283926 2.2738461707376985 13.588569650958215 -1 0 -1
957 107 3 -0.6830000000000001 27.262713157289262 11.926012175136709 10.57529341132808 0 1 0
974 109 5 0.145 26.130336806603097 5.276139627423799 18.62681235877519 1 1 0
438 49 2 0.06 25.261944610392376 8.773294474680066 18.42846671251008 -1 0 0
143 16 2 0.06 25.865950042666718 2.4259616139410816 13.459088958836086 -1 1 0
617 69 2 0.06 19.839140871233504 1.3567889318404522 15.187080910238812 0 1 -1
708 79 2 0.06 15.260100002487 5.218124558345048 11.800635253731445 -1 0 0
742 83 2 0.06 17.72094333044359 8.649144465330865 14.553801712136895 0 0 0
533 60 5 0.145 19.226244560399067 13.053008885403266 19.650478873296017 0 -1 0
2242 250 1 -0.18 15.96566729264732 11.60280349723957 10.544783708470955 0 0 0
1175 131 2 0.06 28.363367961082226 10.500044482928613 17.916913815264344 -1 0 -1
680 76 2 0.06 18.267381887625305 14.91731587016817 15.286837038154436 0 -1 0
930 104 3 -0.6830000000000001 20.78016694890899 9.889498941196589 18.996658771725244 0 0 -1
654 73 2 0.06 16.04420062348506 7.290597914309728 15.758927761322097 0 0 0
540 60 4 0.418 21.1270216342133 12.940419688551518 19.193173385590512 0 -1 0
1511 168 2 0.06 21.20449183543873 12.09286216013744 11.061355236925419 0 0 0
537 60 2 0.06 17.97097437786565 13.842532553472282 18.12100468915709 0 -1 0
935 104 2 0.06 20.126083486133467 8.361092028355703 18.01958815839717 0 0 -1
1042 116 2 0.06 17.314769718040786 13.175454024366449 12.97000633908785 0 0 0
536 60 2 0.06 19.651596242988354 13.820269984049002 17.66073175392072 0 -1 0
444 50 3 -0.6830000000000001 22.182353788972357 13.503894087217672 17.941757003587128 -1 0 -1
139 16 2 0.06 28.352559044608142 2.822796807662508 13.325164633073006 -1 1 0
934 104 2 0.06 19.161342477210482 9.835164443226986 17.761166960670167 0 0 -1
1039 116 2 0.06 16.91947847664958 11.169281717013162 14.443928390870752 0 0 0
1040 116 2 0.06 17.47833520101338 12.716593783816275 15.3120386300699 0 0 0
1036 116 1 -0.18 17.699389752003775 11.898181135351326 14.632814090258838 0 0 0
1038 116 3 -0.6830000000000001 19.193830378709386 13.324723939142523 13.584171577230551 0 0 0
1043 116 2 0.06 18.31523995541402 11.78066974628555 12.594332047050251 0 0 0
1037 116 5 0.145 18.086386594490236 12.51681124466607 13.347942891987739 0 0 0
1507 168 2 0.06 20.884499405274326 8.988665058333154 10.511050573741672 0 0 0
532 60 1 -0.18 18.88218801526758 13.254245602219589 18.16733556396366 0 -1 0
1041 116 2 0.06 18.625345788920058 11.429677735859256 14.994661277848925 0 0 0
1044 116 4 0.418 19.394169287694957 13.82047499673631 12.763413592119663 0 0 0
595 67 1 -0.18 28.293142405450034 8.086708365119469 14.019475920694061 0 -1 0
962 107 2 0.06 27.02997557465401 10.293525680799855 11.84965323374165 0 1 0
917 102 2 0.06 27.80606195760575 1.321120765563947 17.99193833443603 -1 0 0
1713 191 3 -0.6830000000000001 21.497119504981157 12.638571413226211 15.328304339687561 0 1 0
1719 191 4 0.418 20.644362118974477 12.857412027181953 14.989150691214517 0 1 0
1505 168 5 0.145 21.213913330661775 11.173920824159781 10.493808668103718 0 0 0
1509 168 2 0.06 21.77749207752219 9.664498363448134 11.952023476314054 0 0 0
1504 168 1 -0.18 20.98674200107193 9.821372127801991 11.222621596788747 0 0 0
1508 168 2 0.06 19.980338496241856 9.88604380663084 11.69922528068705 0 0 0
535 60 2 0.06 18.816845840985522 12.26710781213447 17.7714562473217 0 -1 0
450 50 4 0.418 21.985962321301606 13.230974357308098 17.026853648230613 -1 0 -1
436 49 2 0.06 24.6393282803868 9.956400037150804 19.40500282451989 -1 0 0
433 49 1 -0.18 24.970252355553498 8.973866762959949 19.492014729610887 -1 0 0
255 29 3 -0.6830000000000001 23.3800181529285 14.293765581249152 14.29037864243887 0 0 1
1210 135 2 0.06 15.121992567093086 2.16224409244895 15.257148401418634 -1 0 -1
449 50 2 0.06 24.063342520672975 12.798939878298395 17.53337884233003 -1 0 -1
928 104 1 -0.18 18.7181748506532 8.769849191582356 19.629136529157392 0 0 -1
1177 131 2 0.06 26.040027750656243 11.947494886756717 16.89617132008013 -1 0 -1
1214 135 2 0.06 16.15930891751257 4.697891862637954 15.274131306101221 -1 0 -1
596 67 5 0.145 27.93627252282257 8.119711961372197 15.44664068141625 0 -1 0
1178 131 2 0.06 26.322361320313455 10.23397154257231 16.943226207791042 -1 0 -1
929 104 5 0.145 19.664810730961584 9.220739649101896 18.492512221987347 0 0 -1
960 107 2 0.06 24.711399250710116 11.703177657897236 11.255299591477982 0 1 0
2134 238 1 -0.18 23.792641195957664 0.5691820305464689 19.133595091816986 0 1 -1
956 107 5 0.145 26.57518123823484 10.63126073371413 10.871548168082073 0 1 0
502 56 2 0.06 25.350667114092424 7.215010452896419 15.9337640232949 0 0 0
598 67 2 0.06 27.55190010731269 7.4304895268013444 13.543756680842575 0 -1 0
601 67 2 0.06 26.953857415202194 8.464765353943577 15.585019911285363 0 -1 0
1485 165 4 0.418 25.038174287390135 13.96533397073411 14.118565664901357 -1 1 -1
1478 165 5 0.145 26.826652541291125 14.310406862126207 13.366714850828181 -1 1 -1
1174 131 2 0.06 28.24890757109287 12.269394307562944 18.062462559321844 -1 0 -1
1717 191 2 0.06 21.579742028643686 10.6173476739156 15.942353915756533 0 1 0
1818 202 4 0.418 20.25323725751994 14.196847272350674 10.338670026625824 -1 0 1
1477 165 1 -0.18 28.24931977739128 13.796508761297819 13.316060516902382 -1 1 -1
442 50 1 -0.18 24.03535419288235 13.67655785301513 19.588126737826194 -1 0 -1
1173 131 3 -0.6830000000000001 27.310369796918856 11.426744073630635 15.499824581249023 -1 0 -1
1715 191 2 0.06 23.074722268010184 11.651820144398753 13.524866718558288 0 1 0
1483 165 2 0.06 26.435305798352218 14.014617636360411 12.385010277193214 -1 1 -1
979 109 2 0.06 26.037811921676827 5.078578596893502 19.758345556494895 1 1 0
958 107 2 0.06 24.574663003210972 9.897120389977163 11.6148429838545 0 1 0
1716 191 2 0.06 22.9852484916796 10.0926603603702 14.093073733802479 0 1 0
1172 131 5 0.145 26.782094873769914 11.240567322799638 16.79067246907841 -1 0 -1
1711 191 1 -0.18 22.984934257355548 11.078973779021993 14.392367934154873 0 1 0
261 29 4 0.418 22.62822493174886 13.788347027243239 14.541460292471852 0 0 1
501 56 2 0.06 22.833855073559292 7.27851085608547 15.308188085393823 0 0 0
448 50 2 0.06 23.232004657301033 11.826213968397619 18.496966947915325 -1 0 -1
500 56 2 0.06 23.743115932569765 7.888561185709837 13.907097665525795 0 0 0
443 50 5 0.145 23.4270990442239 12.888146375340492 18.3597458510449 -1 0 -1
1481 165 2 0.06 28.79659112042973 14.434537914013925 12.56571046672022 -1 1 -1
600 67 2 0.06 28.453206392991326 9.025539254623741 13.484601811354 0 -1 0
1479 165 3 -0.6830000000000001 25.98472793677795 13.757689702300917 14.322492609035669 -1 1 -1
140 16 2 0.06 27.781914066349934 4.044824412526118 14.398480657208044 -1 1 0
1171 131 1 -0.18 27.717863248237897 11.336568075674752 17.92994808504998 -1 0 -1
1712 191 5 0.145 21.641270426911674 11.233503827214058 15.086041389590239 0 1 0
1718 191 2 0.06 20.835195038967335 10.969938538041685 14.362287780281257 0 1 0
1179 131 4 0.418 26.806023880590075 12.168078496577651 15.116452918634296 -1 0 -1
1714 191 2 0.06 23.82078266128447 11.252308584138088 15.174260192302947 0 1 0
1480 165 2 0.06 28.79468244711223 13.814064272372981 14.24053253409916 -1 1 -1
2138 238 2 0.06 24.118413421721506 1.5798374805197095 19.07573958060251 0 1 -1
602 67 2 0.06 28.6899092887844 8.637336341108313 15.852482913580387 0 -1 0
1113 124 2 0.06 22.867882782483207 14.030271505109477 10.950776545415698 0 0 0
616 69 2 0.06 21.539251261863768 1.362298607865395 15.839195349632295 0 1 -1
1945 217 1 -0.18 19.495841126152023 0.6143720514072922 11.650088205451633 0 1 0
931 104 2 0.06 17.784555440389177 8.293577567411337 19.422376090968363 0 0 -1
2228 248 2 0.06 19.427203762914374 7.287155422773571 10.819137871511462 0 1 0
1527 170 2 0.06 15.362198582872615 12.337845722938692 19.64620199741345 0 1 0
534 60 3 -0.6830000000000001 20.55385659472021 12.462403225265005 19.805277420875377 0 -1 0
963 107 4 0.418 28.218792614971782 11.745155981650784 10.748173605334578 0 1 0
2224 248 1 -0.18 18.564785032861053 7.545141952638109 10.231730599050799 0 1 0
437 49 2 0.06 24.094511209281805 8.386235342291442 19.763784088154694 -1 0 0
2246 250 2 0.06 15.547488577378283 12.547281447764203 10.193489389438994 0 0 0
2190 244 3 -0.6830000000000001 19.03495389815128 6.030313350995097 26.017705959585022 0 -1 0
2189 244 5 0.145 17.94695827312802 5.230027857045202 26.556448439160953 0 -1 0
1685 188 5 0.145 19.886380979561693 3.6578277003389936 21.703640329344623 0 0 0
635 71 2 0.06 19.905999181133843 0.9881216722609281 28.498038610003015 0 0 0
2067 230 2 0.06 21.860495749170497 7.306283454564587 22.900478642526984 0 0 0
1691 188 2 0.06 18.955497847140656 3.414313671583663 22.22404368112582 0 0 0
2196 244 4 0.418 19.83387690677207 5.859336402260945 26.48620547795062 0 -1 0
1687 188 2 0.06 21.21110725606475 2.7333560311178746 23.396657206581096 0 0 0
1684 188 1 -0.18 21.104699292187277 3.5455162847064856 22.704805256766733 0 0 0
1692 188 4 0.418 19.373377903979772 2.61725397898546 20.048709155717816 0 0 0
1689 188 2 0.06 21.993219377736935 3.3715509115079834 22.213347227502425 0 0 0
1686 188 3 -0.6830000000000001 20.158524178760942 2.6984391513931714 20.620324722368657 0 0 0
1688 188 2 0.06 21.198211964730504 4.494775586078262 23.31442571374909 0 0 0
663 74 2 0.06 26.112544754055207 13.205496553983684 29.21234168166111 -1 0 -1
2192 244 2 0.06 17.956489571257123 3.715131717226593 25.017722093869608 0 -1 0
2055 229 3 -0.6830000000000001 15.100865964977327 13.839953510112453 23.97461109743245 1 -1 1
631 71 1 -0.18 20.816537441964194 1.32958293182273 28.069157597359627 0 0 0
1690 188 2 0.06 19.82211506917524 4.598227997137891 21.121038442291805 0 0 0
2195 244 2 0.06 16.979347438243444 5.519209425045739 26.39301920293456 0 -1 0
900 100 4 0.418 27.088872460345733 11.226931283124282 26.1922657314732 -1 0 0
2188 244 1 -0.18 18.089516435008683 3.73979522107285 26.082412663427725 0 -1 0
2142 238 4 0.418 21.69779958475914 1.935940214044073 20.920625327869764 0 1 -1
633 71 3 -0.6830000000000001 22.214916745524697 1.3894070588516323 26.064133204215473 0 0 0
636 71 2 0.06 20.659986778576105 2.4096200512759522 28.173270170461727 0 0 0
1869 208 2 0.06 21.51436033011013 7.874466733888649 28.34414292025447 1 0 0
1864 208 1 -0.18 20.91263611745596 7.66082558724239 29.316044188182218 1 0 0
1557 173 4 0.418 15.607164388747439 10.371334634779812 24.613500070664728 1 1 0
391 44 2 0.06 18.566671205499645 6.307377240543468 22.76521442382076 0 0 0
2194 244 2 0.06 18.015228865180454 5.228223541352998 27.65666220210243 0 -1 0
1002 112 3 -0.6830000000000001 15.600227647122084 3.3572006372232996 20.73023956992383 0 1 -1
1000 112 1 -0.18 15.011156847832929 1.4413398513988578 21.918966965603083 0 1 -1
607 68 2 0.06 28.865962206107547 13.693535725731987 21.654388882881655 -1 1 0
389 44 5 0.145 16.523086293283242 6.323176347612697 21.816611184205513 0 0 0
2191 244 2 0.06 18.920887374607844 3.2716304954330764 26.411393532107176 0 -1 0
2062 230 1 -0.18 22.895586758729415 7.559476883715889 22.887039034796622 0 0 0
2193 244 2 0.06 17.245917905667156 3.1909478035177146 26.541388043610418 0 -1 0
723 81 3 -0.6830000000000001 22.1415631711389 11.262531632651871 29.20026322482979 0 1 0
2065 230 2 0.06 23.227698759167403 7.69486264506726 21.89415981000529 0 0 0
358 40 2 0.06 23.977886678784913 3.8063968361736373 27.085207311094976 0 1 1
359 40 2 0.06 22.89746768966156 3.5565334603349483 28.433168129270385 0 1 1
388 44 1 -0.18 17.52221225701325 6.059890692506403 23.007279570438016 0 0 0
639 71 4 0.418 22.24411298349326 1.0226046868323178 25.11463992579575 0 0 0
1008 112 4 0.418 15.890491884120676 4.300816609609316 20.647438875447612 0 1 -1
1573 175 2 0.06 15.637573639312455 7.851099927186978 26.49859643256533 -1 0 0
393 44 2 0.06 17.304072998063752 6.458019973027756 23.935488378591103 0 0 0
2136 238 3 -0.6830000000000001 22.326920820350857 1.1635402924407514 21.110765311913703 0 1 -1
390 44 3 -0.6830000000000001 16.959739079517014 5.783016358660072 20.595646479223667 0 0 0
392 44 2 0.06 17.613893381079393 4.969700333628468 23.129481726527878 0 0 0
396 44 4 0.418 16.6593997895462 6.342304395125767 19.864539589253134 0 0 0
933 104 2 0.06 19.26479651094879 7.99349341772062 20.23835919901594 0 0 -1
634 71 2 0.06 21.69301202596028 1.099834425533207 28.753621280687547 0 0 0
1001 112 5 0.145 15.373123057243498 2.9130787195300907 22.071268742101132 0 1 -1
434 49 5 0.145 26.046240082721575 8.896967105076367 20.552985730916184 -1 0 0
1006 112 2 0.06 15.988817099456636 3.1634254243711664 22.890480741757294 0 1 -1
477 53 4 0.418 29.422704308588536 0.6524448120485431 20.392675801544527 -1 0 0
608 68 2 0.06 27.91637161133768 14.413119322369509 22.94335459193225 -1 1 0
1496 167 5 0.145 28.966771026659927 3.806964582522671 26.89759259415262 -1 0 -1
35 4 2 0.06 19.16958458829653 14.159217641256074 26.8876371805992 0 -1 -1
1500 167 2 0.06 29.32389723977991 5.2382032359855115 25.330759706971357 -1 0 -1
352 40 1 -0.18 24.95020707050673 4.145541647850076 29.007134682566857 0 1 1
2063 230 5 0.145 23.65639672553249 6.387616773460315 23.491627484700537 0 0 0
2069 230 2 0.06 23.608708718564053 6.2918509132206655 24.612516926152466 0 0 0
2068 230 2 0.06 23.31704126692145 5.4312607782718745 23.149616352162354 0 0 0
360 40 4 0.418 23.495410824021214 1.5984780344769696 27.429208080038244 0 1 1
354 40 3 -0.6830000000000001 24.17819254994722 2.062233099405838 27.909713628787564 0 1 1
2064 230 3 -0.6830000000000001 24.969823846205863 6.4222859089473605 23.12080290369883 0 0 0
882 98 4 0.418 25.583639308115657 2.0819833283495406 26.884650360283764 -1 1 -1
1497 167 3 -0.6830000000000001 27.859834777722597 3.679294161184317 26.11552059256666 -1 0 -1
292 33 2 0.06 25.2280972389946 3.1846247914305756 21.038303599506904 0 0 -1
290 33 5 0.145 25.673449968466713 1.9734328369502459 22.87906138391306 0 0 -1
296 33 2 0.06 25.51764343784881 2.735577393427697 23.60574094870971 0 0 -1
295 33 2 0.06 24.793710268070697 1.371520608167617 22.76850726470795 0 0 -1
289 33 1 -0.18 26.043267379440742 2.5453695732871937 21.483071128306605 0 0 -1
1503 167 4 0.418 27.513543943721068 2.757352830863065 26.24102417096111 -1 0 -1
1467 163 4 0.418 26.56494902727939 4.888204134648529 25.72842301502329 0 0 0
876 98 3 -0.6830000000000001 26.232690766443504 1.588505989777996 26.327429282742855 -1 1 -1
297 33 4 0.418 26.576046912275935 1.1437222130988998 24.356143646200508 0 0 -1
293 33 2 0.06 26.051025380413662 1.6450279167225275 20.904177544278276 0 0 -1
291 33 3 -0.6830000000000001 26.636158189553612 1.1702052506752036 23.41889367164027 0 0 -1
2070 230 4 0.418 25.37938975436007 6.232092538990799 23.935159969452776 0 0 0
1461 163 3 -0.6830000000000001 25.80792762258521 5.473261147481854 25.628808407916267 0 0 0
1976 220 2 0.06 16.62686463040736 14.7059239693413 20.80474188570168 0 -1 0
353 40 5 0.145 23.93375683706848 3.4474671863912367 28.09729776013784 0 1 1
294 33 2 0.06 26.944120620367734 3.1641137666394354 21.404221535016028 0 0 -1
356 40 2 0.06 25.924328319799727 4.08230736217161 28.50846201072899 0 1 1
1501 167 2 0.06 28.705110465721305 3.9070342598641243 27.94670018827305 -1 0 -1
538 60 2 0.06 18.49548094467834 12.496703615521955 20.173815189136157 0 -1 0
1866 208 3 -0.6830000000000001 20.399674917852025 5.468336756910872 28.51838465129002 1 0 0
1570 175 2 0.06 16.669997654624325 9.190110040237604 29.050036532505665 -1 0 0
753 84 2 0.06 29.053414499163125 1.1259788162606337 29.112731454000404 0 1 -1
1462 163 2 0.06 25.432332268519517 8.499520350981115 26.995740009563697 0 0 0
18 2 4 0.418 29.308259650443283 8.322209875381258 28.707739898096754 -1 1 -1
1394 155 2 0.06 21.905995957037078 14.880633926715323 23.50077917505714 -1 0 0
1079 120 2 0.06 28.672482179674006 8.105114474456833 24.848530012485924 0 0 -1
446 50 2 0.06 23.14782260767094 13.821904440792382 20.246879511705522 -1 0 -1
1392 155 2 0.06 19.96868058330879 13.255179596668313 24.165773414654453 -1 0 0
1076 120 2 0.06 26.545073240737786 9.410210490395727 24.016092999420287 0 0 -1
1073 120 5 0.145 28.540577994970306 9.220440774796367 24.87682506245971 0 0 -1
282 32 3 -0.6830000000000001 28.639872554438945 14.006803596780749 28.11058422178455 0 1 0
171 19 4 0.418 16.571019429349597 12.47804380063187 24.07669483583289 0 1 0
1868 208 2 0.06 19.863592017086454 7.98712913809158 29.10804554136314 1 0 0
2066 230 2 0.06 23.09559710881259 8.576261833373373 23.385856065435938 0 0 0
637 71 2 0.06 20.213574291638935 1.3063940875785873 26.14657524055462 0 0 0
167 19 2 0.06 17.486800125540725 9.377504324472774 24.73612247936665 0 1 0
475 53 2 0.06 28.967006991858547 2.2111015397677045 21.899988055302458 -1 0 0
591 66 2 0.06 16.369545801850165 5.541397407348069 29.49556616125531 0 0 -1
32 4 2 0.06 19.146682959036234 14.558118482030846 29.11559258556143 0 -1 -1
2059 229 2 0.06 15.189879849296723 14.093012728189125 26.030514109968742 1 -1 1
1567 175 1 -0.18 16.284038916050925 8.30847289376144 28.661722137643757 -1 0 0
895 100 2 0.06 24.92821060978281 14.427615245142244 24.92722741917614 -1 0 0
1103 123 2 0.06 29.169744446513256 9.596008405978274 20.80005697056619 0 0 1
43 5 2 0.06 19.06808454569672 0.6550951443611908 23.872257173896386 0 0 0
1387 155 1 -0.18 20.15828544285261 13.729620046615086 23.151074202663267 -1 0 0
163 19 1 -0.18 18.343984015487372 9.76938719849658 24.19319451360068 0 1 0
168 19 2 0.06 19.086100943073134 9.9706306140462 24.97562734889582 0 1 0
166 19 2 0.06 18.748990735440678 8.86876495038796 23.551925219113606 0 1 0
1574 175 2 0.06 16.49163840557313 9.368680953922652 26.802676171677284 -1 0 0
170 19 2 0.06 18.757995933257185 11.634449398065065 23.272647619323834 0 1 0
164 19 5 0.145 17.841131100384388 11.01822034852646 23.4202588680158 0 1 0
169 19 2 0.06 17.425386165310968 10.861966354771317 22.424517112736147 0 1 0
604 68 1 -0.18 28.873600916289483 13.892630508103572 22.75184734058164 -1 1 0
165 19 3 -0.6830000000000001 16.96711008947539 11.65009331411713 24.351917568745172 0 1 0
725 81 2 0.06 21.593960262127347 12.853657928888104 27.494434854148103 0 1 0
724 81 2 0.06 23.212409862345993 12.887258401430996 26.769158461283432 0 1 0
726 81 2 0.06 21.86095860132184 11.952384180495471 26.137179850091314 0 1 0
721 81 1 -0.18 22.342157583990613 12.275011023414544 27.10192702595255 0 1 0
722 81 5 0.145 22.734362646895015 11.025908293573378 27.931521392205532 0 1 0
355 40 2 0.06 24.768463788973406 5.201390192178692 29.24165146355199 0 1 1
1390 155 2 0.06 20.88316660233931 13.050829934762163 22.659149352553605 -1 0 0
1499 167 2 0.06 29.421448958985913 5.9320461816690155 27.009443972692317 -1 0 -1
1572 175 2 0.06 15.52344606436799 7.91049578156188 29.290808177612178 -1 0 0
1571 175 2 0.06 16.997838396471188 7.447838160741083 28.738495352883604 -1 0 0
288 32 4 0.418 28.13510490303147 13.289671303946989 27.614121451275928 0 1 0
932 104 2 0.06 18.473660658162693 9.550631670861069 20.381577109752456 0 0 -1
2002 223 2 0.06 15.676556221536282 13.79898178247873 28.952858829443706 0 -1 -1
1568 175 5 0.145 15.72616742986301 8.715841643269027 27.205310792942647 -1 0 0
1080 120 4 0.418 28.73183252405525 9.32606906972263 26.922609452505597 0 0 -1
897 100 2 0.06 26.548025793118413 14.48298891659119 25.057494339376966 -1 0 0
880 98 2 0.06 26.670078477854396 0.5156876267471374 28.027800488906564 -1 1 -1
445 50 2 0.06 24.838142940611377 13.231864677831629 20.127845821701968 -1 0 -1
394 44 2 0.06 16.481439842795336 7.458420218238167 21.75479219246622 0 0 0
435 49 3 -0.6830000000000001 26.386520654719533 7.530795162643263 20.773335673608848 -1 0 0
440 49 2 0.06 26.914372219224248 9.55398598256035 20.253701651252698 -1 0 0
586 66 1 -0.18 15.49472855878959 4.905018877353118 29.493781710928225 0 0 -1
893 100 5 0.145 25.829598309986388 12.685427894208678 25.919346888610157 -1 0 0
1466 163 2 0.06 27.20340531287077 6.824393986802909 26.17859334261552 0 0 0
1074 120 3 -0.6830000000000001 28.056990604847215 9.53446383344476 26.20424528876189 0 0 -1
1075 120 2 0.06 27.63865624480529 10.590898040345566 23.510650144213933 0 0 -1
1072 120 1 -0.18 27.564174493092658 9.564841741845791 23.745052133128276 0 0 -1
632 71 5 0.145 21.029213487632944 0.8814784610719992 26.64006450941517 0 0 0
892 100 1 -0.18 25.80527091191911 13.795410844481713 24.915011134017156 -1 0 0
1465 163 2 0.06 26.11057305041217 6.342801322192106 27.403116766116796 0 0 0
1460 163 5 0.145 26.15951446488326 6.593882119539619 26.384786495569678 0 0 0
1077 120 2 0.06 27.611342708807022 9.137231233243462 22.760046489100034 0 0 -1
896 100 2 0.06 26.000783733588122 13.411717426520285 23.929663583451138 -1 0 0
1463 163 2 0.06 24.156559805310835 7.433440228843857 26.58771563137701 0 0 0
899 100 2 0.06 25.63219653902577 13.106126236078229 26.84473449938845 -1 0 0
441 49 4 0.418 25.908976165094387 7.222770697420238 21.58033824307688 -1 0 0
894 100 3 -0.6830000000000001 27.116767202969108 12.192304243057528 26.16085124960984 -1 0 0
592 66 2 0.06 16.019596056054162 3.0443873818484155 28.36443427022911 0 0 -1
1459 163 1 -0.18 25.104818906110424 7.703821121669584 26.351016892509442 0 0 0
439 49 2 0.06 25.60277855462855 9.406540310400585 21.441257869889974 -1 0 0
1003 112 2 0.06 15.866169513222188 0.8325295903631575 21.77365891251209 0 1 -1
395 44 2 0.06 15.54701444027563 5.923255201999115 22.11163617391562 0 0 0
728 81 2 0.06 22.271811375271376 10.178622354365478 27.490253824584357 0 1 0
898 100 2 0.06 24.982918438891346 11.956043582477928 25.84357074941778 -1 0 0
1464 163 2 0.06 25.134442720565673 8.097750620613976 25.359836410398152 0 0 0
727 81 2 0.06 23.75229741782696 10.728139603149772 27.89930900900419 0 1 0
587 66 5 0.145 15.882716633335786 3.3403930739261174 29.368566069792976 0 0 -1
287 32 2 0.06 28.91614383515514 14.816997478670386 26.29329020270206 0 1 0
238 27 2 0.06 15.289033024045876 1.9499642500244865 26.427573782403364 0 1 -2
609 68 2 0.06 28.988848761854243 12.95302092277725 23.262374966962092 -1 1 0
1872 208 4 0.418 20.252286716438434 4.597457008018996 28.8699374248121 1 0 0
34 4 2 0.06 17.416065722749615 14.504963912195803 27.002563952647115 0 -1 -1
1391 155 2 0.06 19.252624793199445 13.727693037998911 22.5413822753888 -1 0 0
29 4 5 0.145 18.417258732426426 14.90173016450025 27.106626378068313 0 -1 -1
539 60 2 0.06 19.248852208579528 14.076665862865084 20.175971043734037 0 -1 0
476 53 2 0.06 28.992190148487254 0.6918816802000162 22.695829518359332 -1 0 0
229 26 2 0.06 22.638473142583237 14.780056593516306 28.443046865932274 0 0 0
674 75 2 0.06 19.788284140064462 17.56706188878723 7.109343726726072 -1 0 0
675 75 4 0.418 19.313077244852828 18.718744959267603 5.516128666855737 -1 0 0
673 75 2 0.06 18.337463030201278 18.445763888674968 7.587454857878066 -1 0 0
669 75 3 -0.6830000000000001 19.532295634306813 19.31489922574518 6.195711533319926 -1 0 0
668 75 5 0.145 19.399593956961 18.521108128148825 7.336407189392809 -1 0 0
813 91 3 -0.6830000000000001 20.6335937868892 20.493836896232004 4.001940294251174 0 -1 1
819 91 4 0.418 20.377272936400672 20.308553267340194 4.942884153447671 0 -1 1
667 75 1 -0.18 20.294272588127626 19.121339879456926 8.524832689472186 -1 0 0
671 75 2 0.06 20.108279002123737 18.69563332089305 9.539755480627381 -1 0 0
670 75 2 0.06 21.342486583244103 19.012570223873 8.376855490538098 -1 0 0
672 75 2 0.06 20.052163800035146 20.19190242524001 8.508807390023469 -1 0 0
1533 171 3 -0.6830000000000001 18.26620139046151 17.91145734497509 3.9743999996912946 0 -1 1
1532 171 5 0.145 17.853079542053315 16.696790454579563 3.5091445150722715 0 -1 1
1536 171 2 0.06 17.66042776737188 16.01025169309354 5.486990334534919 0 -1 1
1531 171 1 -0.18 18.241865471023836 15.783950128899406 4.630371745300243 0 -1 1
306 34 4 0.418 17.157541152392717 20.23966956692692 4.386554084640496 -1 -1 -1
818 91 2 0.06 21.690905612011527 18.814711993636138 4.173876138825681 0 -1 1
816 91 2 0.06 22.16834747606113 19.824817288782526 1.8105947171309198 0 -1 1
1534 171 2 0.06 19.326183066735986 15.879046702499389 4.79489470906455 0 -1 1
1537 171 2 0.06 16.79479749441232 16.826517189563674 3.4345844956273726 0 -1 1
387 43 4 0.418 19.556706995891588 20.450016603916026 2.518067638224558 0 -1 1
1539 171 4 0.418 18.52841673074473 18.516543667989886 3.25610920402127 0 -1 1
2185 243 2 0.06 16.9723762794871 20.888889118133427 7.653167329128805 2 -1 0
1538 171 2 0.06 18.187869491315183 16.412066762408877 2.5305899078521903 0 -1 1
1889 210 2 0.06 19.074081668884993 23.044800423104682 2.575404381748108 0 0 1
300 34 3 -0.6830000000000001 16.54398788618596 20.697973992267137 4.932215778741371 -1 -1 -1
1883 210 5 0.145 19.347070940838428 23.47735961468063 3.5142502264808533 0 0 1
381 43 3 -0.6830000000000001 18.922780922332542 19.971158028118815 1.9516586942388654 0 -1 1
1722 192 3 -0.6830000000000001 16.909935678413767 29.083437811558554 6.993420453355242 1 0 0
2001 223 3 -0.6830000000000001 15.585901715384201 16.562478261590428 0.9687638437873558 0 -1 0
812 91 5 0.145 21.894888182336118 19.835291132184175 3.9729685111882995 0 -1 1
1886 210 2 0.06 21.335498636711314 22.724400906272727 3.557047899516081 0 0 1
1882 210 1 -0.18 20.85010944664122 23.693579924090017 3.5102623448091976 0 0 1
2113 235 2 0.06 16.38892390474669 21.80976452959952 2.1931890391822493 -1 -1 0
384 43 2 0.06 20.415558685344777 21.76883094029496 0.5284583128811439 0 -1 1
373 42 2 0.06 22.374033990543303 16.418949833086003 2.6672576980510128 -1 1 0
1885 210 2 0.06 21.243425035796818 24.247741065254843 2.6014706069272013 0 0 1
1023 114 2 0.06 25.168261702385614 19.5049521500503 9.011390905972153 0 1 0
325 37 1 -0.18 22.44826099424464 26.507608710875772 0.6892478316626343 -1 0 0
329 37 2 0.06 21.732057546444317 25.77028217458558 1.0770098072010876 -1 0 0
995 111 2 0.06 29.097519858524656 18.86236218447884 8.429984520389056 -1 -1 0
1267 141 2 0.06 17.20148613341712 27.397635545514 1.4475049305548147 0 -1 1
369 41 4 0.418 22.71275773475743 16.014138137770622 4.636923323495123 0 0 0
1905 212 2 0.06 22.541931883351644 26.185401911289787 4.385404946270733 -1 0 1
817 91 2 0.06 22.329607958412808 20.161597233749525 4.95046421511826 0 -1 1
2102 234 2 0.06 26.797043356174704 15.597656213101878 1.1131231303206985 -1 0 1
811 91 1 -0.18 22.744174660444628 19.985066068935275 2.7313779375286495 0 -1 1
815 91 2 0.06 23.234012491866125 20.913270086862937 2.5940971119774545 0 -1 1
814 91 2 0.06 23.488439738823487 19.25524019546763 2.6869938266528095 0 -1 1
2098 234 1 -0.18 26.742195695630983 16.252452267930607 1.9008694243321438 -1 0 1
999 111 4 0.418 28.588748776543866 22.407116684225315 8.174953696872212 -1 -1 0
788 88 2 0.06 27.015830898659928 16.555272813019002 8.32300285779143 0 1 1
368 41 2 0.06 24.49995791346054 17.514526926601995 4.070630689103879 0 0 0
367 41 2 0.06 24.796475477238282 16.025958547963683 4.965201107729616 0 0 0
364 41 2 0.06 25.66930886321257 18.372122859373484 5.959938775313761 0 0 0
972 108 4 0.418 27.86977047270738 19.119715276897445 2.529535850796036 -1 0 1
361 41 1 -0.18 24.653355725433535 18.04893880146082 5.945207546910244 0 0 0
967 108 2 0.06 25.07275299833273 20.795536861891634 4.7900158416509155 -1 0 1
2100 234 3 -0.6830000000000001 28.26737938533185 17.25517216965936 3.6617569810064925 -1 0 1
1707 190 2 0.06 24.54426938988859 21.07056785610318 7.585001859282018 -1 0 0
965 108 5 0.145 26.788258794649572 19.86851377470895 3.875579140608238 -1 0 1
966 108 3 -0.6830000000000001 27.373095023500923 19.931658761656486 2.594584108695683 -1 0 1
964 108 1 -0.18 26.00799175302543 21.105603274093973 4.383784660203952 -1 0 1
365 41 2 0.06 24.279636019489594 17.78416833527455 6.93819819077611 0 0 0
366 41 2 0.06 23.93979857537213 18.84210571766836 5.697315765210462 0 0 0
362 41 5 0.145 24.305281002266085 16.990689992532786 4.95167649775351 0 0 0
791 88 2 0.06 28.97137871398556 15.049443609253045 8.866313500834753 0 1 1
2101 234 2 0.06 25.956051652034596 15.822842494535548 2.529837972034161 -1 0 1
969 108 2 0.06 26.5292176729986 21.68121773763621 5.235736887227572 -1 0 1
2099 234 5 0.145 28.136150292634618 16.260800947621114 2.617736201832843 -1 0 1
970 108 2 0.06 26.14574388587539 19.017436457170902 3.889500008487166 -1 0 1
971 108 2 0.06 27.59836280470722 19.712227761338056 4.632425555726244 -1 0 1
2105 234 2 0.06 28.34744578303372 15.226133609928354 2.979784992420952 -1 0 1
1944 216 4 0.418 28.13340228874476 21.382229008314106 2.1683844933698064 -1 -1 0
1022 114 2 0.06 26.369894945854817 18.51986591017951 8.64758022829772 0 1 0
789 88 2 0.06 26.663890415994906 15.538580479995229 6.854595364747907 0 1 1
157 18 2 0.06 21.305810488131506 28.402293359224068 3.381772372884238 0 -1 1
968 108 2 0.06 25.865352811803774 21.909564310182986 3.655492337139799 -1 0 1
162 18 4 0.418 18.168071292472654 29.231044668706552 5.131382298378191 0 -1 1
155 18 5 0.145 19.52216258783399 27.925112333580422 4.587915434677182 0 -1 1
784 88 1 -0.18 27.442217537344185 15.93713962279994 7.552978936408586 0 1 1
787 88 2 0.06 28.04417078677522 16.62532777685029 6.9279803007437915 0 1 1
766 86 1 -0.18 29.26943546921354 24.361262402733914 5.6087498034875996 -1 1 0
2103 234 2 0.06 26.55369703101546 17.179987836364297 1.3746540723794425 -1 0 1
2104 234 2 0.06 28.807043181897384 16.425446456412722 1.8303575334872795 -1 0 1
2183 243 2 0.06 15.524247140788525 21.579654049926667 9.432772193844034 2 -1 0
1706 190 2 0.06 25.865764609052093 21.95185183311967 7.885492382509081 -1 0 0
363 41 3 -0.6830000000000001 22.942378483082976 16.709250767193872 5.267184140671132 0 0 0
2106 234 4 0.418 28.985784122568518 16.982635546509215 4.225171734885248 -1 0 1
1115 124 2 0.06 21.89890173850361 15.845118087276749 8.719803342476359 0 0 0
2115 235 4 0.418 16.304421485185305 22.79477792773281 4.226005996938115 -1 -1 0
2180 243 5 0.145 17.138693159161853 21.893979375794608 8.030944982162975 2 -1 0
1888 210 2 0.06 18.98196553458864 22.730508670006436 4.3246834177894 0 0 1
2186 243 2 0.06 18.144724119781756 22.119794615319016 7.991090641498999 2 -1 0
770 86 2 0.06 29.37479989937212 24.728056290152196 4.557000018127161 -1 1 0
993 111 3 -0.6830000000000001 28.956919223384062 21.576273895069583 8.403999861582983 -1 -1 0
328 37 2 0.06 22.921457134569913 26.986887871435137 1.5629411425997963 -1 0 0
992 111 5 0.145 28.59479360619809 20.699465071034915 7.418904648931461 -1 -1 0
2109 235 3 -0.6830000000000001 16.353627626188334 23.3801137747393 3.4867474760046235 -1 -1 0
158 18 2 0.06 19.952777262938547 27.82617196828261 2.4248726795508455 0 -1 1
1887 210 2 0.06 21.088411037522143 24.13455042324648 4.397421055818926 0 0 1
154 18 1 -0.18 20.429584908663244 27.743864440031388 3.3563690038183056 0 -1 1
1941 216 2 0.06 27.76508195073255 24.910538331601764 1.3955478632466103 -1 -1 0
2108 235 5 0.145 15.858765639087165 22.733986565130735 2.3381703103574303 -1 -1 0
350 39 2 0.06 26.66141353182354 28.93826896154569 8.45459642277878 -1 0 1
2181 243 3 -0.6830000000000001 16.37944276589117 22.733888840103084 7.164571661203593 2 -1 0
1262 141 5 0.145 16.47062301696501 28.113036121919905 1.6314148958630126 0 -1 1
1890 210 4 0.418 17.719965555831628 24.41595274268908 3.668270892776115 0 0 1
2179 243 1 -0.18 16.578290221561467 22.000480652121595 9.409592192562346 2 -1 0
1096 122 2 0.06 18.548541916191347 26.41275693313856 7.1531790803020945 -1 -1 0
1091 122 5 0.145 19.15060323268714 25.622593907002617 7.5201996392703 -1 -1 0
1884 210 3 -0.6830000000000001 18.614562334279952 24.71777078238842 3.807107162660304 0 0 1
370 42 1 -0.18 21.83967427506026 15.449537769065346 2.623488176818358 -1 1 0
161 18 2 0.06 19.05433484248774 27.011965005428102 4.811793885967243 0 -1 1
1938 216 3 -0.6830000000000001 28.42268852422869 22.293030702815273 1.9305384829656471 -1 -1 0
1726 192 2 0.06 16.277152444775112 27.348584363431158 7.857115264085816 1 0 0
1721 192 5 0.145 16.082493325621936 28.010511967346346 7.022349026200632 1 0 0
1720 192 1 -0.18 15.994211519477462 27.29893626028165 5.729607500088986 1 0 0
2110 235 2 0.06 17.088485647217034 23.824426712920577 0.992777757325955 -1 -1 0
2107 235 1 -0.18 16.049261848970815 23.64898620241336 1.1634078458060988 -1 -1 0
2111 235 2 0.06 15.39124216447639 24.516401617346226 1.2209204446920046 -1 -1 0
1724 192 2 0.06 15.59918373613925 27.925586865126512 4.983348070077416 1 0 0
1723 192 2 0.06 16.928662750555965 26.762350151270162 5.349209594138498 1 0 0
1120 125 2 0.06 26.983111151578193 24.371669360346765 9.760575737792369 0 -1 1
1097 122 2 0.06 18.678982584680128 25.03001984408438 8.22748931508137 -1 -1 0
1094 122 2 0.06 20.861420467629543 26.98133918390223 7.683916120630287 -1 -1 0
1090 122 1 -0.18 20.252527606208986 26.330777734726432 8.360295028107148 -1 -1 0
1093 122 2 0.06 19.859426562052427 26.986796015473928 9.143408945407833 -1 -1 0
1317 147 3 -0.6830000000000001 25.45243552100063 26.8522703830008 9.802527775557909 0 0 1
1098 122 4 0.418 19.147755389804722 25.101807817440204 5.793896061386927 -1 -1 0
1092 122 3 -0.6830000000000001 19.781956748239807 24.985129041070557 6.476710842075441 -1 -1 0
1937 216 5 0.145 27.477208602322307 22.742820470518375 1.0605583271152614 -1 -1 0
1095 122 2 0.06 20.924102227990716 25.63168150518613 8.833862700178743 -1 -1 0
159 18 2 0.06 20.847204822682578 26.77531351643721 3.2705473985824587 0 -1 1
1589 177 2 0.06 20.773135079033842 22.19287794044083 9.564806671346327 0 0 0
156 18 3 -0.6830000000000001 18.68601484350333 29.05875499779927 4.3830323414785965 0 -1 1
1903 212 2 0.06 22.917411989259513 25.58381332287111 6.045325308891528 -1 0 1
452 51 5 0.145 28.415810194688433 28.762895594854065 5.313431281071312 0 0 1
1981 221 1 -0.18 23.196940259756047 29.406997567248055 8.02531912596536 0 0 0
459 51 4 0.418 26.473594786565144 28.79302390282254 4.891904915829694 0 0 1
772 86 2 0.06 26.92508513696503 23.93639100410588 5.5257598962789025 -1 1 0
997 111 2 0.06 27.523372715917198 20.44235126471027 7.5157892175442855 -1 -1 0
1904 212 2 0.06 23.934533381291892 24.92517094738959 4.820607017385784 -1 0 1
1709 190 2 0.06 24.45108106069013 23.312056905554527 6.56852911746898 -1 0 0
1269 141 4 0.418 17.721401348255796 29.275766976099128 2.5032401092043837 0 -1 1
1704 190 3 -0.6830000000000001 24.878545442534232 24.56928403984081 8.1517336983941 -1 0 0
1708 190 2 0.06 23.1688101320769 23.415402727746418 7.7614286973444315 -1 0 0
1693 189 1 -0.18 25.972669271339036 29.30558529306299 2.145290516002156 -1 -1 1
1705 190 2 0.06 24.59645798457342 21.803384847172303 9.102670808019253 -1 0 0
2184 243 2 0.06 16.600071663426675 22.931522506477222 9.81693501700312 2 -1 0
1816 202 2 0.06 19.072095821595134 15.601335338985148 9.525542529390753 -1 0 1
160 18 2 0.06 20.227748950280798 28.142313789765105 5.415298265293822 0 -1 1
299 34 5 0.145 15.380604451889473 19.887480839980597 5.0011353268607515 -1 -1 -1
2007 223 4 0.418 15.82964877536361 17.36201895128827 0.527795141641785 0 -1 0
1906 212 2 0.06 23.74863176396255 27.75185821444414 5.896782514257964 -1 0 1
305 34 2 0.06 15.546907856826673 19.02440762565834 5.673865883117514 -1 -1 -1
768 86 3 -0.6830000000000001 27.70604151464842 23.91328548595775 7.397892421669103 -1 1 0
773 86 2 0.06 27.513946576058174 25.466240555559835 6.080345831445461 -1 1 0
1901 212 5 0.145 24.289913717929544 26.939435769232958 5.418243291472517 -1 0 1
1984 221 2 0.06 22.71218702274389 28.42158022214086 8.227260757606343 0 0 0
1703 190 5 0.145 24.273169789812364 23.328074393803576 7.624295109252203 -1 0 0
1908 212 4 0.418 25.927259901325947 27.227188993572014 6.213812481224717 -1 0 1
458 51 2 0.06 28.433612591583532 29.425453552187165 6.184095368260467 0 0 1
1943 216 2 0.06 26.485191874103002 22.66226538415919 1.5539293803608978 -1 -1 0
1702 190 1 -0.18 24.76662145463463 21.96225399821762 8.06205130087877 -1 0 0
767 86 5 0.145 27.771749149464434 24.42114924407128 6.109681012772119 -1 1 0
1323 147 4 0.418 25.2025638163502 26.318074701815775 8.997292494670178 0 0 1
1907 212 2 0.06 24.61926318678499 27.2882639862813 4.444762822072642 -1 0 1
774 86 4 0.418 26.923559307930994 24.384891743572958 7.75468888062327 -1 1 0
453 51 3 -0.6830000000000001 27.148859080256223 28.17069054785604 5.122782319981644 0 0 1
1902 212 3 -0.6830000000000001 25.231953063937375 26.57053846400823 6.372279871340696 -1 0 1
1900 212 1 -0.18 23.309748210106953 25.833730803155213 5.116550279870579 -1 0 1
374 42 2 0.06 21.08335584724272 15.499595656573728 3.4672957649954723 -1 1 0
1710 190 4 0.418 24.75475865729124 25.25662695766431 7.478410279052409 -1 0 0
345 39 3 -0.6830000000000001 27.60093957787418 28.54351648605617 10.105663422654898 -1 0 1
304 34 2 0.06 15.134721881898281 19.552817741736725 4.046137968664935 -1 -1 -1
1698 189 2 0.06 26.01589905731599 28.166569147713318 2.3145685748472173 -1 -1 1
2187 243 4 0.418 16.500362251459734 22.23962510646006 6.3352384141726885 2 -1 0
349 39 2 0.06 28.3286870673808 28.408546827375723 8.236134105375594 -1 0 1
375 42 2 0.06 21.31250385190416 15.395376350030066 1.7307678978368102 -1 1 0
998 111 2 0.06 28.874660452660265 21.110942942818234 6.435151833514329 -1 -1 0
1674 186 4 0.418 15.063821223856692 23.867004361506197 7.626987077789391 0 -1 0
385 43 2 0.06 20.290477024893335 19.039371670538216 0.6295858145351798 0 -1 1
380 43 5 0.145 19.434658371665037 19.735026247500286 0.6771609025848591 0 -1 1
1263 141 3 -0.6830000000000001 17.050336168031087 29.384370270716026 1.8519612280143323 0 -1 1
1268 141 2 0.06 15.950493769944364 27.809610227387424 2.529199021404974 0 -1 1
1446 161 2 0.06 24.33213955967505 22.233468210599334 0.8359982868216329 0 0 0
1590 177 2 0.06 19.937818124987515 23.571848180671118 10.068785603741958 0 0 0
1985 221 2 0.06 24.278187351521254 29.3312439210113 7.706866465326682 0 0 0
2182 243 2 0.06 17.213047945336257 21.4165756573284 10.099591179273427 2 -1 0
344 39 5 0.145 27.633849582485126 29.05049033432777 8.821247034873531 -1 0 1
1697 189 2 0.06 25.79186379404237 29.31486725680945 1.1040613915799762 -1 -1 1
1018 114 1 -0.18 25.704928914235097 18.723187473890185 9.446293440723343 0 1 0
1021 114 2 0.06 25.06026674024232 17.855208828349568 9.620823961551048 0 1 0
994 111 2 0.06 28.999203249804147 18.703010424850447 6.70699486450481 -1 -1 0
1727 192 2 0.06 15.102946486916123 28.489998719568973 7.20524861233179 1 0 0
991 111 1 -0.18 29.358785691912928 19.362097574963087 7.5248793726111325 -1 -1 0
752 84 2 0.06 29.46150389891572 28.780444605736342 1.1178392219486488 0 0 0
1725 192 2 0.06 15.25365230357057 26.53338696895807 5.831100044043991 1 0 0
351 39 4 0.418 26.937264238485994 27.853144590483886 10.11017731359046 -1 0 1
1936 216 1 -0.18 27.74916394073813 24.186626967825028 0.5696549279626453 -1 -1 0
1849 206 2 0.06 17.629081114417225 27.922747886318696 18.592146323833035 -1 0 0
1803 201 3 -0.6830000000000001 20.708800848508673 17.98197306920192 19.062274664234018 0 -1 0
677 76 5 0.145 19.44112330694795 16.6787181352825 16.21943439746194 0 -1 0
678 76 3 -0.6830000000000001 19.06718277390985 17.94919922916403 16.733077294509798 0 -1 0
684 76 4 0.418 19.602794429794002 18.130935659758613 17.55795316424333 0 -1 0
1809 201 4 0.418 21.034331442131226 18.890252982246707 19.33283798808123 0 -1 0
585 65 4 0.418 15.383049363901652 26.3335454078912 11.347026157785894 0 -1 1
682 76 2 0.06 20.203375078779963 16.85233784506385 15.479174258009092 0 -1 0
676 76 1 -0.18 18.194475486984103 16.005990827165338 15.635657732424391 0 -1 0
683 76 2 0.06 19.896417113212067 16.188317077211188 17.05995046614396 0 -1 0
681 76 2 0.06 17.84470026780855 16.573478294243316 14.78033118603911 0 -1 0
1319 147 2 0.06 24.994213970666188 28.763567865715736 11.30470422232962 0 0 1
1049 117 2 0.06 15.394233262271303 22.717804599309225 14.670864948341107 0 -1 0
679 76 2 0.06 17.456702605465445 16.124863937637215 16.435477923180315 0 -1 0
692 77 2 0.06 18.536762451529633 21.032350740605096 18.989871192721516 1 -1 0
1820 203 5 0.145 28.824325408129944 28.724933513191786 13.044035950909139 -1 -1 0
1340 149 2 0.06 16.587292999268527 20.602718259812058 17.4746332665151 0 -1 0
341 38 2 0.06 24.44873828892048 18.60340086822565 19.56642614637746 0 0 -1
1322 147 2 0.06 24.331874233848154 25.80182001163974 11.167201255675415 0 0 1
1564 174 2 0.06 15.142182447101359 16.783246996311874 12.274117726821263 0 0 1
130 15 2 0.06 17.60240235309685 23.088900267608423 14.335700412909182 -1 -1 0
1813 202 2 0.06 16.711541998310025 16.149674790323647 10.459904467649125 -1 0 1
340 38 2 0.06 23.257511077844747 17.412102846549324 19.611609512631127 0 0 -1
1339 149 2 0.06 15.541176538651326 20.138971576978648 15.937477385580197 0 -1 0
131 15 2 0.06 17.986785930051617 21.70354255746311 15.44670108690398 -1 -1 0
127 15 1 -0.18 18.437506525669903 22.41385090580222 14.729069972466 -1 -1 0
1591 177 2 0.06 22.456250815393 23.818674661527297 10.255156165763418 0 0 0
105 12 2 0.06 21.641322404869136 19.902591366419806 14.587593121880246 0 0 0
1848 206 3 -0.6830000000000001 17.47246990096439 28.497116415372396 16.14575379807021 -1 0 0
1948 217 2 0.06 19.454682138360788 29.411176164574478 10.579222148484554 0 0 0
223 25 2 0.06 20.806037234042712 21.42656605385978 17.94489631553703 1 0 0
100 12 1 -0.18 21.26275100960116 19.31791096100813 13.735735205365023 0 0 0
916 102 2 0.06 28.291265603479225 28.79811809379612 17.095468153060835 -1 -1 0
103 12 2 0.06 20.78029409514287 18.43403325513816 14.210605832067886 0 0 0
620 69 2 0.06 20.220302452102217 27.94365937230622 14.477648265866346 0 0 -1
104 12 2 0.06 20.457618680891812 19.906097665487046 13.230220184632104 0 0 0
1453 162 2 0.06 26.400810742448634 28.68248567351924 15.721430698556974 0 -1 0
1051 117 2 0.06 15.800417958033687 23.784801302644688 12.280142068363553 0 -1 0
1111 124 2 0.06 22.261002091354328 15.649005094008182 11.165060234529959 0 0 0
1771 197 2 0.06 27.139127921269292 22.961120237038465 19.378493440850427 0 -1 0
1826 203 2 0.06 28.138025994838998 28.067633027437665 13.61575531200019 -1 -1 0
1586 177 5 0.145 21.893659427880962 23.32380794739226 11.00009771879199 0 0 0
1125 125 4 0.418 28.976189435330042 24.20839439552261 13.50953915454641 0 -1 1
260 29 2 0.06 22.639162056095437 15.384644057668423 15.788893631425337 0 0 1
101 12 5 0.145 22.33870792993573 18.87071878263894 12.724966058939295 0 0 0
107 12 2 0.06 23.17365715319543 18.39127793871419 13.153511355690043 0 0 0
1024 114 2 0.06 26.95930501400433 20.188500632343967 10.380612071259229 0 1 0
108 12 4 0.418 23.74140939066369 19.624394920952163 11.580886401198818 0 0 0
218 25 5 0.145 21.797038973601033 21.490861721244585 18.422836018849935 1 0 0
221 25 2 0.06 22.78515013341304 19.881255040529204 17.278786732708355 1 0 0
220 25 2 0.06 23.19463881713999 21.40606846272471 16.699278073195842 1 0 0
258 29 2 0.06 24.73366396502405 16.623506444061597 13.993838753158512 0 0 1
1026 114 4 0.418 26.115945146733047 19.65774526839902 12.42221187989585 0 1 0
1678 187 2 0.06 27.556789782282856 17.047069290938673 17.685543521939493 0 -1 0
1675 187 1 -0.18 28.41403319292612 16.31414598344172 17.578134052622687 0 -1 0
256 29 2 0.06 25.109322162780266 15.680444891427506 15.552037674069823 0 0 1
253 29 1 -0.18 24.42553723046956 16.293087164846533 14.962523905790867 0 0 1
257 29 2 0.06 24.129299523559382 17.215166714834048 15.43387790516892 0 0 1
2236 249 2 0.06 27.24464324725298 20.014880117218105 16.14020245421223 0 0 0
2238 249 2 0.06 25.880125241085196 19.98897569389988 15.014113532501101 0 0 0
2233 249 1 -0.18 26.9557226914365 20.09844708955891 15.096295821969832 0 0 0
2235 249 3 -0.6830000000000001 27.00393162610073 21.44488769848138 13.199642027156536 0 0 0
2234 249 5 0.145 27.440856829870015 21.438456311772377 14.530477192254038 0 0 0
2239 249 2 0.06 28.551814813243396 21.585228647565053 14.469683291870362 0 0 0
2237 249 2 0.06 27.269534401511912 19.276397455370265 14.505182267892309 0 0 0
217 25 1 -0.18 22.980956241966624 20.85437620377536 17.62967283997368 1 0 0
2241 249 4 0.418 27.173090202828313 22.331809345054396 12.914363978491716 0 0 0
222 25 2 0.06 23.893729921217663 20.90262444070452 18.258456223392855 1 0 0
1320 147 2 0.06 25.984259089522347 27.676549517652383 12.31156227315932 0 0 1
2240 249 2 0.06 26.994237682333832 22.24624161021294 15.062719139189255 0 0 0
1020 114 3 -0.6830000000000001 25.616430976792508 19.30687148823165 11.677657761974954 0 1 0
1611 179 4 0.418 22.558883201416393 21.60306674669343 13.487428945823726 0 1 1
1952 217 2 0.06 17.266063207517675 29.237786348775053 11.667028695172585 0 0 0
254 29 5 0.145 23.154527394317 15.540750152192036 14.804988607138197 0 0 1
102 12 3 -0.6830000000000001 22.95058360057204 19.940508697242755 12.009203279593686 0 0 0
1205 134 2 0.06 28.84455810392577 17.38204026297307 12.077878476221958 0 0 0
1975 220 2 0.06 16.4391789836136 15.773072813020647 19.45533525818113 0 -1 0
1810 202 1 -0.18 17.456719484920356 15.636104351230998 11.075366371338808 -1 0 1
1450 162 1 -0.18 25.71200203312184 27.876859543405878 15.693883015270517 0 -1 0
1019 114 5 0.145 26.445947018276904 19.21123995024974 10.616353334549073 0 1 0
1025 114 2 0.06 27.25457503417563 18.567949903657052 10.922418155506355 0 1 0
1609 179 2 0.06 24.615626314083848 22.225206196884812 14.798564867265016 0 1 1
1318 147 2 0.06 24.302135045698435 27.819307573642206 12.766881922668535 0 0 1
224 25 2 0.06 21.96704778071785 22.587266751472733 18.773487266252594 1 0 0
1854 206 4 0.418 16.771499822408124 28.398584809720226 15.478253282826504 -1 0 0
259 29 2 0.06 22.460306989194883 16.209060345959774 14.255076775479507 0 0 1
1676 187 5 0.145 29.138141180788416 15.915926174139871 18.852767827238146 0 -1 0
1847 206 5 0.145 16.816105446143844 29.183340196434308 17.186409291560487 -1 0 0
1679 187 2 0.06 27.920883601983356 15.4584347953461 17.102581353229525 0 -1 0
911 102 5 0.145 28.53316993247929 29.484609572809283 17.942643793902732 -1 -1 0
132 15 2 0.06 18.72783076039989 21.861846036880877 13.888137295813507 -1 -1 0
2073 231 3 -0.6830000000000001 16.594568179251013 23.758129826537896 16.95025040907801 0 0 1
2079 231 4 0.418 17.560724158507625 23.786730585783154 16.79890328142948 0 0 1
62 7 2 0.06 29.321416899120564 21.684023940617685 11.862649649091491 -2 0 1
691 77 2 0.06 18.590088706797026 22.724393949272162 18.84482199258111 1 -1 0
1821 203 3 -0.6830000000000001 29.44174956453002 27.881781753416924 12.078058413790192 -1 -1 0
1592 177 2 0.06 22.39271033431112 22.538456902949477 11.523554872135945 0 0 0
1334 149 5 0.145 15.57210694880098 20.490504812173732 17.009785471138272 0 -1 0
1341 149 4 0.418 15.52672496530137 22.423593477981548 17.071638089186884 0 -1 0
912 102 3 -0.6830000000000001 28.40408824028662 28.751189529134052 19.157920806642842 -1 -1 0
615 69 3 -0.6830000000000001 20.198154782516518 28.285798970601626 16.67668077906373 0 0 -1
91 11 1 -0.18 22.40368421208209 25.26395956678563 19.342946046771168 1 0 0
134 15 2 0.06 20.468663377516528 22.678810673966375 15.153811029937607 -1 -1 0
216 24 4 0.418 15.531958685059006 27.522705553357333 13.569113500725566 1 0 0
1853 206 2 0.06 15.837992147931955 28.779524790101938 17.340507962910195 -1 0 0
579 65 3 -0.6830000000000001 15.924494922785621 26.453750987767556 12.131567886020438 0 -1 1
1593 177 4 0.418 22.15922538324932 23.873390981077293 12.759149882181097 0 0 0
128 15 5 0.145 19.5801370585313 23.27540458982154 15.222273573594986 -1 -1 0
133 15 2 0.06 19.962351094197523 24.01568863640224 14.523984975776594 -1 -1 0
2078 231 2 0.06 16.784160906236046 25.536032115831013 16.203692963178817 0 0 1
621 69 4 0.418 19.23872975870937 28.361325250675407 16.536160603736853 0 0 -1
1587 177 3 -0.6830000000000001 21.655093383324107 24.21509524129236 12.051611180051902 0 0 0
583 65 2 0.06 17.28323779722848 25.14358094849875 11.121594695587097 0 -1 1
578 65 5 0.145 17.24615665043511 26.12847546881008 11.632008887230715 0 -1 1
584 65 2 0.06 17.517975978000017 26.833968694260406 10.909869875904272 0 -1 1
1484 165 2 0.06 26.773700985150697 15.377129631873919 13.449811730903427 -1 1 -1
577 65 1 -0.18 18.185986126818925 26.16821464629502 12.79203241476088 0 -1 1
1769 197 2 0.06 25.9204987525382 22.247897343497918 17.358600023869684 0 -1 0
1337 149 2 0.06 15.273009895225693 18.428895770760377 17.795689847119455 0 -1 0
2072 231 5 0.145 16.180617329507136 25.061080635127844 16.968238245789372 0 0 1
129 15 3 -0.6830000000000001 19.37517719336075 23.749033268906018 16.510641892980765 -1 -1 0
135 15 4 0.418 20.07438058117667 24.37545973982992 16.754774286124494 -1 -1 0
93 11 3 -0.6830000000000001 20.907282710153297 25.834527663846416 17.576179895909675 1 0 0
99 11 4 0.418 20.835087494877037 26.741417063491724 17.314044541336102 1 0 0
581 65 2 0.06 17.978899523502065 27.08282146676988 13.395625156142863 0 -1 1
580 65 2 0.06 18.096714165946693 25.263349271997278 13.437650979186296 0 -1 1
582 65 2 0.06 19.15752886306548 26.303261814793913 12.41900894690433 0 -1 1
1949 217 2 0.06 19.832478421357557 28.674326503963798 12.193893366156585 0 0 0
92 11 5 0.145 22.2274423598747 25.57623693265026 17.870282177543366 1 0 0
1454 162 2 0.06 24.751866271092226 28.213301600288673 16.102176919664018 0 -1 0
210 24 3 -0.6830000000000001 15.325085251902543 28.23560980215875 14.1831235502433 1 0 0
1607 179 2 0.06 24.448374596644676 24.730477416221696 13.25109055588414 0 1 1
2077 231 2 0.06 16.37633759535612 25.43358627793924 17.970908027811227 0 0 1
614 69 5 0.145 20.713999638968133 28.46969368671435 15.34744144401223 0 0 -1
106 12 2 0.06 21.812844265219304 18.117259604470703 12.099680201376568 0 0 0
1112 124 2 0.06 23.890404760005495 15.355109857990767 10.645847441651219 0 0 0
1122 125 2 0.06 26.92223219690957 22.88128912422053 10.765793786182941 0 -1 1
1588 177 2 0.06 20.05678776545414 22.257396673446593 11.188397780660068 0 0 0
918 102 4 0.418 27.62313170302103 28.233192498049426 19.17262394188544 -1 -1 0
1610 179 2 0.06 24.57052842671994 22.294799452101074 13.056648116702323 0 1 1
1451 162 5 0.145 26.076944815049778 26.726009348117586 16.631790500309364 0 -1 0
1680 187 2 0.06 29.026086708993866 16.67328766092603 16.691142372020472 0 -1 0
1456 162 2 0.06 27.03339462697373 26.304791837785316 16.381403251863368 0 -1 0
619 69 2 0.06 21.741310494362644 28.065754957690324 15.32494308446238 0 0 -1
1121 125 2 0.06 26.129965244252944 24.317766971236743 11.243179010989367 0 -1 1
1123 125 2 0.06 28.385087641188477 25.561177289970978 11.700012858413798 0 -1 1
1814 202 2 0.06 17.97114301390448 16.481148362239608 11.561306075454308 -1 0 1
1605 179 3 -0.6830000000000001 22.67030844397766 22.43917587548752 13.916582866260415 0 1 1
1356 151 2 0.06 28.986779377800218 24.471941565770557 18.050519068790308 0 0 0
1827 203 4 0.418 28.745778545862656 27.93909073796977 11.443176366176257 -1 -1 0
1316 147 5 0.145 24.473165729350697 26.825213783344637 10.77337196460097 0 0 1
2139 238 2 0.06 23.697992032260075 29.15851862769849 18.109124079975707 0 0 -1
1457 162 2 0.06 25.411742182399443 25.87788397906025 16.721379923259008 0 -1 0
94 11 2 0.06 23.391488647043545 24.685514212774883 19.258991650138285 1 0 0
1561 174 2 0.06 15.573931047475583 18.44032723328626 13.9582626209162 0 0 1
98 11 2 0.06 22.91842289403774 26.37940788547644 17.561353982569486 1 0 0
1851 206 2 0.06 18.522086129596403 29.430762330722693 18.476454020578082 -1 0 0
1124 125 2 0.06 29.207137347261764 24.10514308841556 11.20494012151672 0 -1 1
1315 147 1 -0.18 24.991475135940817 27.780597470531603 11.899512661111226 0 0 1
1119 125 3 -0.6830000000000001 28.172052904102614 23.98867800448521 13.042942863588477 0 -1 1
1604 179 5 0.145 24.11900098223189 22.66648386017299 13.970137679380997 0 1 1
1585 177 1 -0.18 20.553755974739865 22.80073947360809 10.426158162847251 0 0 0
1452 162 3 -0.6830000000000001 26.278129969661776 27.248212582236206 17.989653609077152 0 -1 0
1458 162 4 0.418 26.371787436585265 26.48666139036009 18.507555706365878 0 -1 0
1765 197 1 -0.18 26.17423312889553 23.27900907549524 17.54725400197301 0 -1 0
1815 202 2 0.06 16.897224841120867 15.098703077698088 11.830727914019773 -1 0 1
1603 179 1 -0.18 24.49573135269283 24.150757286561713 14.158407370391007 0 1 1
1118 125 5 0.145 28.255563284732858 24.42939135317701 11.662412074704227 0 -1 1
1455 162 2 0.06 25.543900218182074 27.524775213455037 14.674699835485638 0 -1 0
1766 197 5 0.145 26.210358069858216 23.401279472842994 19.073424055841656 0 -1 0
1767 197 3 -0.6830000000000001 26.34945868125861 24.79249752743287 19.375237716450947 0 -1 0
97 11 2 0.06 22.500247374786582 24.618826378136106 17.40992115483821 1 0 0
1606 179 2 0.06 24.02725912255351 24.674642282972506 15.0171143788738 0 1 1
1117 125 1 -0.18 27.018078488404853 23.942217602600408 10.786131129225874 0 -1 1
1608 179 2 0.06 25.533451078210312 24.086000535188973 14.355707545391978 0 1 1
1768 197 2 0.06 25.290939010964536 23.759135391379942 17.079511032197225 0 -1 0
1846 206 1 -0.18 17.569315460072687 29.003098810966335 18.45684708121688 -1 0 0
1108 124 1 -0.18 22.860453447186742 15.018731729275562 10.53325071142475 0 0 0
1770 197 2 0.06 27.100544371297005 23.648889981541053 17.10427033056827 0 -1 0
1050 117 2 0.06 15.398667749454352 21.44637731043143 13.481949340115662 0 -1 0
1321 147 2 0.06 23.501188460291445 27.20739762416965 10.40563287181756 0 0 1
219 25 3 -0.6830000000000001 21.654529675280607 20.670857288569692 19.576141667088507 1 0 0
1677 187 3 -0.6830000000000001 28.17644830318313 15.369012975167527 19.67721129884628 0 -1 0
690 77 2 0.06 16.34810452959415 22.097291976674732 19.75472279864504 1 -1 0
1772 197 2 0.06 25.4133824176255 22.885236154730222 19.596260143011584 0 -1 0
686 77 5 0.145 18.511740232506583 21.947245187215685 19.629250275327465 1 -1 0
2137 238 2 0.06 24.57324892597481 28.99470412418689 19.677707104529077 0 0 -1
95 11 2 0.06 21.659267449349343 24.567624725109205 19.824546000820852 1 0 0
420 47 2 0.06 19.199337417705465 25.09891964115983 19.57671737282329 0 0 0
1825 203 2 0.06 28.284007953368473 29.480780143434462 12.4503226905336 -1 -1 0
1423 159 1 -0.18 21.291526766368968 19.794672362235346 25.443598988463634 -1 0 -1
3 1 3 -0.6830000000000001 16.877783639289447 18.33337248877485 25.36170711601786 0 0 0
1430 159 2 0.06 20.378200370843118 19.65414928188943 23.49450544674462 -1 0 -1
1426 159 2 0.06 22.292178555825238 19.922716205915272 25.846628537821992 -1 0 -1
1264 141 2 0.06 16.107405529147297 28.341922958055754 28.464884201406036 0 -1 0
1427 159 2 0.06 20.79228924448821 19.03168595544895 25.99793591462511 -1 0 -1
9 1 4 0.418 17.484090394832002 17.67505132119485 25.65141939273039 0 0 0
30 4 3 -0.6830000000000001 18.498141522110593 15.944287482672934 26.145616689956384 0 -1 -1
1683 187 4 0.418 28.190372685999563 15.767202322228481 20.5159563001 0 -1 0
36 4 4 0.418 19.241622293369176 15.809815018072156 25.53540567725934 0 -1 -1
1389 155 3 -0.6830000000000001 20.329988245699703 16.097378203839007 23.986273064330355 -1 0 0
233 26 2 0.06 22.343692586111814 15.036322982521796 25.9956987544141 0 0 0
7 1 2 0.06 17.808206617588453 18.92429639873116 23.519651299312535 0 0 0
342 38 4 0.418 22.79425326552095 19.44042155369462 20.731452911117465 0 0 -1
1424 159 5 0.145 21.366752547234178 19.60973891864367 23.98295726183722 -1 0 -1
1425 159 3 -0.6830000000000001 21.85639473226579 18.30041669406591 23.72831476004837 -1 0 -1
1395 155 4 0.418 21.005475231703606 16.76980357004998 24.070175926706142 -1 0 0
2 1 5 0.145 16.940045424577917 18.390291282888512 23.98221947874218 0 0 0
1428 159 2 0.06 20.709698070351735 20.67602754064434 25.707085277580546 -1 0 -1
8 1 2 0.06 16.977235127676757 17.411173370466436 23.47868448925712 0 0 0
2012 224 2 0.06 27.928390068927428 19.111476141852727 28.326103706578046 1 0 -1
1429 159 2 0.06 22.066719307367734 20.353212635257165 23.614197804785498 -1 0 -1
383 43 2 0.06 20.111399087621372 20.945158012913062 28.050188445121094 0 -1 0
688 77 2 0.06 17.241516889625863 23.130132750039735 20.860531270518308 1 -1 0
689 77 2 0.06 16.962097480592774 21.42308790454976 21.174699448477234 1 -1 0
330 37 2 0.06 21.858225915132508 27.19639908493953 29.151495848689223 -1 0 -1
196 22 2 0.06 16.24376321012614 22.84161104237556 24.701587642162238 0 -1 0
379 43 1 -0.18 19.72075951314202 21.081213928497363 29.04551172576229 0 -1 0
1 1 1 -0.18 15.73898805401182 19.16971395964495 23.401343984483262 0 0 0
382 43 2 0.06 18.746988894179616 21.59463320649347 29.112260691807016 0 -1 0
2140 238 2 0.06 22.226094491071166 28.400658326549767 20.082287570083245 0 0 -1
685 77 1 -0.18 17.188608631744792 22.158582253165036 20.3594367696723 1 -1 0
28 4 1 -0.18 18.825060942152497 15.423206042506093 28.50938736526919 0 -1 -1
1266 141 2 0.06 15.306261268248159 26.859315501088197 29.294931429979705 0 -1 0
386 43 2 0.06 18.565156951689907 19.19678498930491 29.187711791161526 0 -1 0
42 5 2 0.06 17.77431229833777 27.439312670910134 24.974922189921877 0 -1 0
687 77 3 -0.6830000000000001 19.653560967016894 21.939735393982268 20.558054080915063 1 -1 0
1249 139 2 0.06 15.666994411338514 20.939037913633967 28.568543378675777 0 -1 0
693 77 4 0.418 19.60034621304287 22.73730639572038 21.08160015006974 1 -1 0
33 4 2 0.06 17.845216239835814 15.716103670962253 28.88830953297724 0 -1 -1
1972 220 1 -0.18 16.09761124652986 15.587311820578988 20.416055700473265 0 -1 0
874 98 1 -0.18 27.996298851712908 28.735378582415827 26.558676010168497 -1 0 -1
1244 139 5 0.145 15.026024195729807 20.12132307700358 28.402636960455638 0 -1 0
284 32 2 0.06 29.455845646317492 16.357864831023335 28.068426964810236 0 1 0
1921 214 2 0.06 29.04342956322334 22.590570573719575 21.133476945689942 -1 -2 0
827 92 2 0.06 22.024946743113347 22.552817783287033 25.32160281908034 1 -1 0
1431 159 4 0.418 22.115375886844618 18.28638447726115 22.796612660607245 -1 0 -1
1805 201 2 0.06 18.74773050780646 18.750119199967735 20.88928908922322 0 -1 0
227 26 5 0.145 22.565781004574042 15.873619071563093 26.614101968932353 0 0 0
2112 235 2 0.06 15.619546326602121 23.06090243259944 29.38253850435448 -1 -1 -1
228 26 3 -0.6830000000000001 23.425045773700845 16.75423186085908 25.87420776666152 0 0 0
234 26 4 0.418 22.82651544937439 17.20483136356551 25.204660663424228 0 0 0
230 26 2 0.06 23.233566218011873 16.42333929465354 28.61912683314236 0 0 0
226 26 1 -0.18 23.206783965967276 15.547760375078173 27.98399648302876 0 0 0
339 38 2 0.06 24.301062719695814 16.18424185122001 21.508332495115525 0 0 -1
1546 172 2 0.06 25.63831746345177 19.002173546750598 23.55542163513165 0 0 -1
334 38 1 -0.18 24.832089177897828 16.955325109452204 20.952532185877665 0 0 -1
2015 224 2 0.06 25.941328125457773 17.469318552931497 27.792591493119104 1 0 -1
336 38 3 -0.6830000000000001 23.1750115560542 18.668861490159408 21.185131813071045 0 0 -1
2013 224 2 0.06 27.243782530897057 20.06053906214032 26.998322693221894 1 0 -1
2008 224 1 -0.18 27.384868598973135 19.069212835971875 27.34637886184305 1 0 -1
6 1 2 0.06 15.774408081762273 19.479467619198495 22.31193327710743 0 0 0
41 5 2 0.06 16.95447091565712 28.81437858826652 24.32010196282944 0 -1 0
2010 224 3 -0.6830000000000001 25.17912140574297 18.870869096442895 26.400521358647154 1 0 -1
2009 224 5 0.145 25.984200295233748 18.563405101385577 27.581164363009727 1 0 -1
2014 224 2 0.06 25.57369687517732 19.12907774061116 28.416178463051295 1 0 -1
2016 224 4 0.418 24.49340312503964 18.15193872000274 26.335268632159945 1 0 -1
1393 155 2 0.06 20.885765628942387 15.502248370343517 22.14520286739353 -1 0 0
1548 172 4 0.418 25.74630648811236 19.95849658126958 25.269985961534168 0 0 -1
337 38 2 0.06 25.50184373173863 17.497305750369527 21.554562599176982 0 0 -1
1547 172 2 0.06 24.440364859668712 20.275657081051378 23.212787393606057 0 0 -1
232 26 2 0.06 21.687374389628005 16.54908831263404 26.73209129916075 0 0 0
1541 172 5 0.145 25.50219494696369 20.063939566120403 23.38186610193128 0 0 -1
338 38 2 0.06 25.37896640404277 16.402281977856983 20.183585034323904 0 0 -1
1542 172 3 -0.6830000000000001 26.154112494432347 20.541620126242478 24.534060824013842 0 0 -1
1545 172 2 0.06 27.445335132120476 20.35949502538969 22.467028357683922 0 0 -1
1447 161 2 0.06 23.774585033594228 21.792252452236767 26.895545372682577 0 0 -1
1977 220 2 0.06 16.35362370561461 16.423220571357795 21.091575762225695 0 -1 0
1442 161 5 0.145 24.498521287415464 21.885037699884542 27.683255954982222 0 0 -1
231 26 2 0.06 24.24636323182674 15.303565912811075 27.91589300480318 0 0 0
1445 161 2 0.06 22.799641689032747 22.20756491487353 28.82754996831534 0 0 -1
1540 172 1 -0.18 26.360816158012845 20.56959961775363 22.253118532372916 0 0 -1
1544 172 2 0.06 26.17868331340737 20.006294470123528 21.31745433810721 0 0 -1
1441 161 1 -0.18 23.747391524569906 21.777548504458657 29.00477926239985 0 0 -1
1448 161 2 0.06 25.350662829750284 21.20640994391971 27.607894925815444 0 0 -1
1444 161 2 0.06 23.630522203700238 20.73781553913564 29.331865924678944 0 0 -1
335 38 5 0.145 23.9539646470377 17.91214334716546 20.22788629751897 0 0 -1
2011 224 2 0.06 27.89686342432423 18.365394884086363 26.68448327111747 1 0 -1
1808 201 2 0.06 20.96913770528097 17.611925997141356 21.03181744042311 0 -1 0
1801 201 1 -0.18 18.831484190854376 17.714888472374597 20.63179207196766 0 -1 0
2006 223 2 0.06 15.121572252141842 15.993461577393365 27.993684598584203 0 -1 -1
638 71 2 0.06 20.93690352430609 28.808067492405087 26.563368735916036 0 -1 0
204 23 2 0.06 18.919712211814527 25.98840483615981 29.200034999544954 0 0 -1
203 23 2 0.06 17.699624551683428 25.79289699105273 27.986224760383088 0 0 -1
4 1 2 0.06 15.553698850437527 20.091076291992373 24.020643853982207 0 0 0
206 23 2 0.06 19.31398259317028 27.465565654120844 27.36052196118407 0 0 -1
875 98 5 0.145 26.657822195084456 29.359021113270842 26.9859885433493 -1 0 -1
38 5 5 0.145 18.971248192796835 28.589343461719146 23.59421575423181 0 -1 0
1251 139 4 0.418 15.837418323132061 19.010597564485252 27.0090421083666 0 -1 0
190 22 1 -0.18 15.468225562009131 24.542756042325884 25.553275502402222 0 -1 0
40 5 2 0.06 17.17302883294576 27.43868446629412 23.34469466487281 0 -1 0
199 23 1 -0.18 18.803150644496817 25.62355328731376 28.1851317371463 0 0 -1
225 25 4 0.418 20.947196335224277 21.04087119202682 20.130637048744795 1 0 0
31 4 2 0.06 19.60862912775189 16.234073123215328 28.49410560599221 0 -1 -1
45 5 4 0.418 20.81320576326474 28.326932490632593 23.972655131127837 0 -1 0
881 98 2 0.06 25.962840406158833 28.55272841749442 26.697932098484493 -1 0 -1
191 22 5 0.145 16.53439915322395 23.818622642050016 24.766607083562448 0 -1 0
192 22 3 -0.6830000000000001 16.65043163380527 24.492123279569917 23.483746413332348 0 -1 0
198 22 4 0.418 17.53318564113802 24.29950920256205 23.09124704088761 0 -1 0
419 47 2 0.06 17.70058064928547 25.639705556137088 20.36097535062529 0 0 0
422 47 2 0.06 20.434245755526113 25.696195328454543 21.660728778009684 0 0 0
416 47 5 0.145 19.371759949258248 25.403464795114488 21.762744930887287 0 0 0
201 23 3 -0.6830000000000001 19.64064901901417 25.830216688594682 25.96639720075133 0 0 -1
417 47 3 -0.6830000000000001 19.261027644239583 24.15491379853919 22.414529424816365 0 0 0
423 47 4 0.418 19.94997406580493 24.13676066624224 23.10592171616728 0 0 0
207 23 4 0.418 19.58449276707759 26.475986750475734 25.283981614161057 0 0 -1
421 47 2 0.06 19.04771749368159 26.13685684455828 22.532338622049657 0 0 0
200 23 5 0.145 19.656391656209323 26.416015227706268 27.30860620664776 0 0 -1
205 23 2 0.06 20.657766131566156 26.34499636488578 27.685915547934712 0 0 -1
197 22 2 0.06 17.46847106324646 23.785296946736928 25.301189801504712 0 -1 0
415 47 1 -0.18 18.772077248508026 25.658889148572946 20.407922659529255 0 0 0
418 47 2 0.06 18.921806702645902 26.723056368062963 20.215028348300038 0 0 0
39 5 3 -0.6830000000000001 19.982147627263124 27.937887620021947 24.18394636996237 0 -1 0
1245 139 3 -0.6830000000000001 15.662189271880788 18.938871811442546 27.97839207178361 0 -1 0
202 23 2 0.06 19.043866662864573 24.55432151579081 28.2718947848253 0 0 -1
37 5 1 -0.18 17.660069918521458 27.98234189441571 24.114840171567238 0 -1 0
332 37 2 0.06 24.11504803205245 26.551860735243658 28.356549249642327 -1 0 -1
195 22 2 0.06 15.516148122770675 23.988748184680126 26.493516324595213 0 -1 0
194 22 2 0.06 15.760089539403138 25.640189734816666 25.764045910182816 0 -1 0
1067 119 2 0.06 21.873971709213826 26.738661060520492 25.055001122403155 0 0 0
1068 119 2 0.06 23.229590245358814 27.508154365385742 26.03830594856489 0 0 0
1910 213 5 0.145 27.291395861261883 23.512781077325144 24.967139009160896 -1 0 0
1802 201 5 0.145 20.296490316566462 17.301200148781994 20.243883113236116 0 -1 0
879 98 2 0.06 28.234472596970257 27.8184989895607 27.123486494639188 -1 0 -1
1070 119 2 0.06 24.272341753810593 28.428652434175213 23.9958146322477 0 0 0
1911 213 3 -0.6830000000000001 27.386349865186574 22.52671298435976 26.014374532778646 -1 0 0
186 21 2 0.06 25.70127972014059 27.81648678345494 22.132335139704388 0 0 -2
182 21 5 0.145 27.362609725255666 26.53581518812465 21.945265954874692 0 0 -2
1388 155 5 0.145 20.86722576655974 15.08306928902387 23.18157930053478 -1 0 0
1071 119 4 0.418 22.51996503298104 29.410754548277097 22.734372683806257 0 0 0
1917 213 4 0.418 27.218719916264348 21.66134358731528 25.607858090637535 -1 0 0
878 98 2 0.06 27.875730917509294 28.40813777377688 25.519899363053355 -1 0 -1
1913 213 2 0.06 28.66229969260788 24.67015859964158 26.21156570725887 -1 0 0
327 37 3 -0.6830000000000001 23.03799168733994 25.12522021697059 27.640273278698672 -1 0 -1
189 21 4 0.418 28.531582655461584 24.97041017823286 21.890752939215652 0 0 -2
1806 201 2 0.06 18.54595390552081 17.216477061146172 21.633921804295717 0 -1 0
1443 161 3 -0.6830000000000001 25.080461345951875 23.199685665763162 27.609696567555595 0 0 -1
1940 216 2 0.06 28.708185018113717 24.2280518231794 28.955443188111666 -1 -1 -1
1065 119 3 -0.6830000000000001 22.402804286597494 29.134936646165748 23.692948993435323 0 0 0
824 92 2 0.06 23.31797255785206 24.115621216388085 22.968300762173406 1 -1 0
44 5 2 0.06 19.07509698610341 28.476453424833856 22.53130847287826 0 -1 0
1063 119 1 -0.18 22.947544644561752 27.06145139445797 25.038715597724135 0 0 0
1449 161 4 0.418 25.734530550888906 23.151926737150134 26.88918827004536 0 0 -1
187 21 2 0.06 27.8669331287893 26.893416695383202 22.88723369036058 0 0 -2
1909 213 1 -0.18 27.853898248558707 24.88027572879443 25.547196335770757 -1 0 0
1916 213 2 0.06 26.339189559888254 23.662175365317424 24.4990867698149 -1 0 0
1912 213 2 0.06 27.979785867489795 25.512970751909982 24.744268630985758 -1 0 0
326 37 5 0.145 23.445079769467725 25.802945493882504 28.79930883382356 -1 0 -1
184 21 2 0.06 25.422918012484928 26.208096385959806 22.673128604617773 0 0 -2
1066 119 2 0.06 23.528142723524716 26.13390100306684 24.902429762759233 0 0 0
185 21 2 0.06 25.497060243892427 26.444587379743766 21.003248396212378 0 0 -2
1069 119 2 0.06 23.269027523614504 27.46380006745965 23.04726399359864 0 0 0
1064 119 5 0.145 23.27204187819467 28.059749084366715 23.909662148230026 0 0 0
181 21 1 -0.18 25.88178214402914 26.744664461904094 21.95063628914353 0 0 -2
823 92 2 0.06 23.96729871614955 22.671674912796348 23.794318210848502 1 -1 0
820 92 1 -0.18 23.053613645961747 23.196034050116786 23.52887871610214 1 -1 0
822 92 3 -0.6830000000000001 21.096372134221753 24.158022305673818 24.415960201332453 1 -1 0
828 92 4 0.418 21.033468632075717 24.86055112809357 25.078129164406427 1 -1 0
825 92 2 0.06 22.47009531685319 22.54276036067963 22.867331815068347 1 -1 0
183 21 3 -0.6830000000000001 27.59102877362386 25.161337947930306 21.764707641591336 0 0 -2
1914 213 2 0.06 27.072256740082643 25.354657504543056 26.174802436125177 -1 0 0
1773 197 4 0.418 26.69823111071156 24.821785724318232 20.241266968118943 0 -1 0
188 21 2 0.06 27.8941788387025 27.143833678346454 21.236952854168074 0 0 -2
1543 172 2 0.06 26.326151841973477 21.670729792766075 22.047113730108144 0 0 -1
826 92 2 0.06 22.897410097644673 24.04071157553168 25.441636236501836 1 -1 0
1915 213 2 0.06 27.977452210592887 23.19316125946144 24.13322856385203 -1 0 0
333 37 4 0.418 23.56157052863184 24.33804797341962 27.53986182508293 -1 0 -1
821 92 5 0.145 22.277879888035677 23.449792095354844 24.75525980782529 1 -1 0
1939 216 2 0.06 26.87714476446586 24.528627442337218 28.98788294610506 -1 -1 -1
877 98 2 0.06 28.80858128108403 29.472772563456935 26.55242280849076 -1 0 -1
96 11 2 0.06 22.645084208769013 26.128609493773006 19.893374553190917 1 0 0
1261 141 1 -0.18 15.586803218217153 27.960265715744043 29.36741860987047 0 -1 0
1807 201 2 0.06 20.44614557670932 16.217880467447063 20.11382551949314 0 -1 0
1942 216 2 0.06 27.466383959089967 22.27323159446754 29.043713739705986 -1 -1 -1
331 37 2 0.06 24.015614749679877 25.07152630843059 29.35674886136951 -1 0 -1
2155 240 2 0.06 15.071315824299209 27.72236168722266 20.499018719672748 0 0 -1
2135 238 5 0.145 22.430377853366615 29.44399751255763 19.85890102877994 0 0 -1
1804 201 2 0.06 18.05679686114297 17.637422519005618 19.921770596002446 0 -1 0

Velocities

1899 0.015287220260192061 -0.019491191837348192 -0.00022070074936167476
119 0.0009110763034978252 0.004395024236670411 0.0016971191827399174
1961 0.007369484518077088 0.013259079800418265 -0.053320313468567804
126 0.006415749946245105 0.006382950227487862 0.008497016821446025
120 -0.0029944881925080833 -0.002594907525772361 -0.004396441521865557
146 -0.00036078660749012535 0.006910437620169545 0.0006777820893294449
1955 -0.012780958356891237 0.004670601673935975 0.0029949249262467997
1956 0.0009918138434372946 -0.0041659774323244 -0.011007688976510773
1960 -0.007795739235416743 0.009186312339273247 -0.006818487449391282
1893 -0.0031443587730000055 -0.003921255994972572 0.0013594236850664413
1738 0.007084362506482915 -0.0013575432228990993 -0.010590379384760333
1962 0.023303894856025444 -0.01307385339276049 -0.014845526648293047
319 0.01768490302313504 -0.010342358315248849 -0.02600343430448319
25 0.023097021608354303 -0.0008618736366514156 -0.01018588158061496
20 -0.00326023595154275 -0.006035285715709118 -0.00034755670002787205
24 0.01687712226260192 0.001584299283740448 -0.02737687356285079
121 0.001151742673580911 0.010793645336951457 0.006904573410024452
148 0.005676226808092218 -0.008925597325724692 -0.03405618451914659
1739 0.0018135733212907238 -0.00559086126555763 0.0023959171677428136
147 -0.0012476691157149544 0.002585249755014498 0.002604600437417877
1744 -0.015147701805699132 0.01105033831397914 0.011532010291113167
1740 -0.007110785796819599 -0.0001436268781801924 -0.0018660240223611526
1791 -0.013167050594351574 0.00470750400207811 0.017313228060285582
1954 -0.0077597108184159274 -0.003617800464926565 -0.008390840109088284
150 -0.029651987699666645 -0.004397934601081303 0.02475341378764533
2146 0.014485879873044985 -0.01927504284899246 0.006543844168820641
2093 0.015492876929727952 -0.022128071317953458 0.013892828606314814
145 -0.002933577677085139 -0.005513807047763073 -0.009925837477399703
123 0.002741924175197625 -0.0036551843848955682 0.00040253255171179603
1745 0.04618851969495911 -0.004423453513855917 -0.006499635313154048
589 -0.016875126632145618 0.013975003780023901 -0.004813912311257863
22 -0.008696101786355702 -0.01754692045041887 0.012025447558479733
19 0.002080118397761394 0.006211579190390007 0.0013290847722525654
1746 -0.0033009703842436433 -0.02300063926608157 -2.006742631683882e-05
1958 -0.008110407125294367 0.014459917790718813 -0.0038442979894255875
153 0.006383943713837201 0.006795303334927133 0.004950029522631818
486 -0.019193435717861237 0.041483365398319254 0.022412819984631037
949 -0.002738438348474605 0.011297886864314223 0.014081104950170635
26 -0.003670768073034982 -0.0016305804386279148 0.0009145041324536582
1013 0.01050952968928024 -0.019621455405229006 0.007932562074020974
23 -0.015992026208524426 -0.007796797248725863 -0.001904118531122739
64 -0.004694157546658222 -0.002612407258834055 0.004559262878434655
1741 -0.0012257691005580877 -0.033399028067655864 0.008496668567579977
1784 -0.0022685609272948804 0.003441749769869519 -0.006133259565020394
1742 0.005317046880193871 0.0005158421215885495 -0.0014184049622754317
2095 0.007689921932185357 -0.011044600129616404 -0.011565918874191596
1386 -0.008264632145189894 -0.0010422099452793699 -0.0219058016507956
53 0.020899450931810736 -0.014379599193878058 9.021055820914477e-05
1083 0.004649860534627585 -0.0014938956788822302 -0.002853018025380038
901 0.005726172420078278 -0.005380044891328901 -0.005320646547498921
149 0.0035276278590226934 -0.026399925248802324 -0.012926359941148205
908 0.006269157037176629 -0.008528368240202174 0.006463777488330891
2004 0.020359171609279424 0.010044780157365263 0.004230323811972141
952 0.008398814894796993 -0.017317682284573293 0.008919320996981487
1231 -0.002240654807702333 0.00832657535284578 -0.004972023072818391
1957 -0.0062014091732515144 0.006772080784094331 -0.013708401597762643
2097 0.008602913256831528 0.002913880528047255 0.007508588474916449
1898 -0.02776628487134488 -0.03527823091269775 0.012548949218487737
67 0.0009674697795637167 -0.018968785947032836 -0.012504148155494225
905 -0.0015460819567107128 -0.023449203861790186 -0.009381400514935774
2091 -0.0028538364890519146 -0.009698933548055039 0.005903790907280051
1995 -0.011723617656938802 0.007068955357976171 0.016678830123803626
1994 -0.0026235547337704135 0.0005801568258987447 -0.028891158267745295
1998 -0.0210100166651707 0.015019922709547943 0.0006147913756049101
1992 0.0060933726060845884 0.0016977659107788557 -0.005030682304563548
1991 0.00025673479524639076 -0.00711808327270863 -0.002608011528687007
1089 0.005584270826007713 0.007744745340470677 -0.0004052288607606205
1990 -0.003222746482516119 0.004068125715778037 0.00644185199167321
1997 0.017914824582772937 -0.00597572420856253 -0.014030362631651333
2212 0.007943592896807749 -0.0028222601787794063 0.0020776894125445985
2214 -0.002692200418622782 -0.019841937584647012 0.019047530982862108
1996 -0.009225420046312197 -0.017638490995091953 -0.009877102839651278
1087 0.000260744026687307 -0.029256498788901124 -0.01019613932455785
902 -0.004300757302637041 -0.002172519844932967 -0.001161257702494624
1993 0.02855670963401237 0.02023654679931448 -0.00710085344226027
1088 -0.0058631930314370926 -0.009319334055734974 0.004093358220349361
1033 0.005901992709699948 -0.003726989334223268 -0.007849851199378739
2149 -0.009301054879238317 0.04536692549910948 0.022058304423715834
1131 0.0031079138342853443 0.00224602313410082 -0.007423533086595999
1081 -0.0031886640467152674 0.0034430381663921243 -0.005426794626274021
1011 0.004338278124340438 0.0014875987706461054 -0.008340283139734514
1082 4.8390352268689224e-05 -0.0002096167380852668 -0.006157395074408366
321 -0.0012646000580984595 -0.015853388425997376 0.0003350818155382759
951 -0.0014119315392747988 -0.01597298807046669 -0.010193888521483202
2036 0.00266747394310675 -0.00410353932698168 0.0033967615740246836
946 0.0006488322991778415 -0.0004952639685164157 -0.0009789119703543466
1616 0.005502753455948341 0.013233063076185905 -0.023793812689464382
2147 -0.007719816593564818 0.00794033716427965 -0.008280972275656127
1229 0.006278351814116762 0.008349131730650284 -0.024897203882629747
909 -0.027192691600269076 -0.022827745263463636 -0.008003867208936541
1086 -0.0119140394850371 0.01640007104720073 0.03873567782310996
2207 0.004492599672371447 -0.0023885726258926245 -0.0033338359089393962
1379 0.008124648654156049 0.003511095078992354 0.0010448205911745235
1959 0.0042801158304158985 -0.0057042227318415 0.012736665514625649
1233 0.009727845853430325 0.007429674778274653 0.012652676979736958
1619 -0.009005386794450664 -0.004345540852903592 -0.013155823174522484
2208 -0.0004070721132692787 0.001747884095107746 -0.003403222707325675
1785 -0.0004574450470133928 -0.002576043415944121 -0.004398157476085933
906 -0.0009773363958646517 -0.006763060794363871 -0.022002227092616802
1612 -0.006598532526990058 0.0037283605509900943 -0.008293202403091624
485 -0.02589226108617773 0.009762731911286236 -0.02843819314639556
1743 -0.014468356767200024 -0.014153042618282664 -0.02535214399814583
52 0.011209026544130442 -0.0009179893130534464 -0.018484513680576894
482 0.005407273610180103 0.017376259581245435 0.004500176882896762
1029 -0.0008183252409088874 -0.0017333161519226482 -0.0013184994501906305
781 -0.010782667293599767 -0.00019617909651403195 0.01067029626663581
27 -0.01024014054404625 0.007447577187131551 0.0071999896460426096
478 -0.005549450240562414 0.004150278383148315 -0.009991311316024732
2043 0.01495687620791924 -0.013408612054588988 0.0014428778157639583
481 0.015182333216015672 0.017364124026003975 0.0021442308443631796
50 -0.011743347180435968 -0.02036610072117777 -0.018294456003685015
21 -0.0011117176575450444 -0.002519051850781059 -0.004035083084631305
46 0.0002746396708008037 0.003284952185099259 0.0021441843565968306
483 0.008915649385118546 -0.018977153299741367 -0.012699339390341478
51 -0.016079181242612497 0.0006965674033341606 -0.00919708682513404
49 0.004405892382749953 0.0009323268850519311 -0.01420499273786989
1035 -0.018399223444131887 0.03228102104437369 -0.009777387101187179
1371 -0.004032863288923696 0.0026188790435203867 -0.005096580188903989
1373 -0.01307854507702701 0.006139197329688786 0.00922127109322733
1376 0.006445696346363434 0.02618178759190151 0.0005618550117368595
1375 -0.005630585853589955 -0.012474582532589963 0.0122808339186889
1374 0.010798032071917865 -0.02973886076084099 -0.005812630046817723
1370 -0.0022181281531378537 0.005168126861557154 0.0037417753757279567
1369 0.008910663864465991 0.0002059248210005206 -0.000977103426104381
2037 -0.0025242134001993944 -0.0021433982081708446 0.006334217803350465
1377 0.010852264465041504 0.0101216503948726 -0.011145896166429827
1372 0.02318940422711166 -0.030318700700125743 -0.003083617803917173
1225 0.006648280871963039 0.007687193006581565 -0.0006923566159123564
480 -0.005409540025306864 -0.00814713065476591 -0.00525013860175798
118 -0.0007245007628260918 0.004915838735227485 -0.0022126065001050713
1384 0.022942854831136204 0.006793721584331936 0.016531172905959037
68 0.01531601539395234 -0.01022656713592356 0.028364495833863305
1226 -0.004534923135902973 -0.0010052655678318523 0.010895391450543879
2038 -0.007672376514393123 -0.0367786867633854 -0.009562929903971564
1028 -0.0033202877454478817 -0.004965850144174229 -0.0010063580311273173
1034 -0.03164393486947479 -0.007183723013647537 -0.023806197860015865
479 -0.0009394995319634271 -0.005884253393921238 -0.005161157976848421
1617 -0.012697796606978666 -0.01768414451063637 0.006877791373754321
1790 -0.009310623161452574 0.01974126912020606 -0.03572377596645779
151 -0.02621289833039354 0.029589961139280696 0.016289753593169677
1380 6.980157629983025e-05 5.210864533692218e-05 -0.004827963355345825
2148 -0.0038868599902996837 -0.015420866042161818 0.003161445453699332
1009 0.001466215022895027 -0.004024008783062795 0.004971078762542905
1385 -0.013767294565956722 -0.006126569851081231 0.009242657515570568
1012 -0.011749840409347009 -0.020074845038891703 -0.006658388813468859
1227 -0.003632842042617881 0.0029025716492666453 -0.005064160080546702
1786 0.010897224863211059 -0.018620630757287465 0.015857325320308896
69 0.02772402995305035 0.010332686801968631 0.0037097354690262957
316 0.008501218380036308 -0.00017927755458538314 -0.005604574636701693
1014 -0.012726264468971665 -0.005851251928903785 0.0044544074004309615
2035 -0.00030275977858244937 0.004624765950296442 0.003888032019579395
2041 -0.012476581771902397 -0.027663652427369255 0.028954667861099657
1788 -0.01789301731349886 0.02467533033080174 0.016212928766733182
47 0.007107012870996622 -0.0004365027496779744 -0.0024834733427229103
1787 0.027464730475676352 0.004788154080513021 0.009203020770562627
1892 0.0031143476672109986 -0.004200468830440115 -0.004818641793101405
1010 0.003575132362040441 -0.001067127273255865 -0.0020745976828777826
320 -0.038957466441455244 -0.010072690448935297 -0.008712397274131513
2039 -0.0018820817269262252 -0.014257643252564409 -0.012080162523623234
2040 -0.0004025675863070231 -0.002771845328692576 -0.030205126927762744
1232 0.0172265208869224 -0.004129161087607942 0.0013322779419037843
2042 -0.03086974391630305 -0.018646414192682183 0.020348843022359335
903 -0.001020994694686181 -0.007165390028582023 -0.004381237553572656
1126 0.006615694343079573 5.6134253978874134e-05 0.0074311916484026625
1895 -0.005324307834195582 0.010413207680858318 0.0018601437271675938
1783 0.0002769617722513593 -0.0036217253331788575 0.010898904197667042
2213 -0.009030289185801546 0.004956599514918137 -0.02300229949185025
2145 0.0007514887538197729 0.002707845973197733 -0.0005400034262009373
751 0.025980703864527426 -0.02695656731054946 0.0054484479935205
2143 0.002014710595047426 -0.0010151033273201908 -0.0037850362542260724
2144 0.001963603921704146 0.006637612719866894 0.001788233946723118
748 -0.0027882118102878044 0.000690701994515271 0.006417154624287005
2206 0.0034982434433240028 0.0020719678221922102 0.0012491721390471956
2210 0.01315917934319627 0.0075231004007820955 -0.012690350194837219
2209 0.0027755699255234394 0.0037506969916394463 0.0017944761796127992
1032 -0.008106471495643234 0.041981858460489845 -0.02870126548464526
1016 0.006217040701731578 -0.01631431432234805 0.010906035397966135
1648 0.001868664452613425 0.0020859876805333385 -4.0538262746488877e-05
432 0.00048388671972969565 0.013725779180207048 -0.0030453731639575286
1650 -0.004995537916688837 -0.004378230682976496 0.00582337298873369
426 0.0057870573694393575 -0.0025107087191391236 0.0008971099131941878
1649 0.0010526728686608958 -0.005377526623399239 0.006193065116659652
1656 0.010897422559944393 -0.012386597483336594 0.011062334004966961
1653 0.00296657069425552 -0.007315236384288425 -0.020633207681231263
1964 -0.0016386836955985956 0.0007049765875249363 0.0002928007750274366
1212 -0.011000221941879954 -0.011420480222938014 0.025723922246351335
1652 -0.0013503568530789805 -0.0012437523827833505 -0.0321112965318026
1651 0.0038018117780489677 -0.04403448238584377 0.003626596797540937
1655 0.0036101366594401625 0.030817588417899038 -0.03692683818177944
1963 0.002243768051626017 0.0026321720597018007 -0.002550202147006698
1381 0.014838618052037322 0.0016435993835296492 0.019140440847732927
1967 0.010665384025564726 0.0018714293474568551 -0.0005508058846349968
1654 0.022713489124362413 0.003799017452849069 0.015866750117427615
1528 -0.02310141051149304 0.006449398047785545 0.05101398619566364
707 0.005030831032942348 -0.004996611907489089 0.019000807602988553
1368 -0.011025895797120407 0.013201277195751867 -0.011202360582784388
310 0.009959738936260171 -0.000283252713588778 0.01867987138982424
1362 -0.007338375400826292 0.005499281640199811 0.008137170681124285
887 -0.0024767958045582824 0.012499813926976725 0.012036219024053963
709 -0.0058099772749394 0.0008432416889926502 0.0013799197526123432
915 -0.01705312931577641 0.00725739421875392 0.014552654279261234
424 -0.0010364308560155712 0.0026506665884179006 -0.009147381822989777
1194 -0.002095834070138504 0.001089602429211614 0.012091678334405753
1228 0.011330290970175228 -0.005817649741032716 0.026828197949760855
1361 -0.004281283408345599 0.0006140945467067104 -0.006810256113397335
1129 0.007841289592920159 0.006419279214575015 -0.03617644739737849
910 -0.013905640414650264 0.00623484629352504 0.0018495836504885345
2151 -0.02283327587960757 -0.0025014893556155942 0.005753552236788129
1378 -0.0001664899665056236 -0.006618532460057249 0.003940248640881913
2050 -0.011375343319027844 0.008603081430136527 0.01134183972181795
927 -0.02393041801073153 0.011247369542731154 -0.012502773452459657
913 -0.007905067742677487 -0.008173271750021307 0.014871630852666027
1965 -0.006065050577691075 -0.00011209026216325255 -0.0006489941862070015
427 -0.027605701645953176 0.007995751911781672 -0.009692535164652483
1618 0.02914985613796098 0.0005564926064297773 -0.02014561762096556
1059 -0.01404409170001911 -0.0026240791753129396 0.022997688155499015
2150 -0.011210236101853458 -0.003933801910487021 -0.016706218820653367
430 -0.0016362772189977383 -0.028834756830137514 0.035069574622736535
1221 0.023546511580143523 0.03534599667348071 0.014553360254009343
2132 0.020137835213381937 0.02837291632036737 5.562681669086498e-05
1364 -0.014309520482617855 -0.019173141666487824 0.01893240179464566
921 0.0071162117114997765 0.002195611455293623 0.007578773854622573
1189 -0.003389036578042268 0.003390249285050795 -0.0023598207680280195
425 -0.0043020468899094486 0.0028889103330567456 -0.0015215137349095414
1365 0.009793875946986426 -0.005116394452019364 0.017783381907163876
431 -0.004804371268289188 -0.028821993233730366 -0.017061871344645783
1360 0.016039837750084475 0.0008895483077801991 -0.006786169580633375
711 -0.0038682850016269043 0.02889729935502892 -0.0031545469283298655
1220 -0.001015534425378068 -0.010000889179394803 0.0024425748609312875
1966 -0.012480782105371782 0.023292261328590785 0.013281392275191083
2133 -0.003871531069739009 -0.01866505893097255 0.007966531556584777
1367 -0.025633416908308566 0.011361336156326 -0.008283472990067767
307 0.004880947336632267 0.007407819828708734 0.002260707531645768
710 0.002709269125349426 -0.0035998976809261942 -0.020282250109542106
657 -0.016247770733798562 -0.013798386410345784 0.007501389981411282
1223 -0.0037327097458053214 -0.011696805523008532 0.008972738763086638
1759 -0.010908428009721423 -0.0032495885892974957 -0.0002362917202183531
1879 0.002936111170543152 -0.023552523665667596 0.01733267320400621
1971 0.022375315916040344 0.024599675524520175 0.009797755897103697
1661 0.01289287072951099 -0.015732002787960542 0.021985380083331542
1663 0.011900606235978094 -0.01876339338691271 -5.235247865853146e-05
1662 -0.006139702095148363 -0.016867949801187408 0.016965542131382443
1657 0.0038325881824569515 0.003222408757254378 -0.005026264553560188
1660 0.04172878718151607 -0.014673181081376423 0.024609822454574735
2045 0.0069355982477017335 2.650743990279468e-05 -0.002475612591563283
1222 0.01768338532375939 0.013891081784188372 -0.007052423377022261
2049 -0.024648423177881143 0.010904543016798022 -0.012187109082324576
1217 0.0014638147212638144 6.123525872452361e-05 0.004140158253395281
2051 -0.03054628939850331 0.006151003055197661 0.007390351557431787
1664 0.019840599238166886 -0.0387970169206888 0.013338498608603111
1658 -0.004423793628770352 0.002908123839293878 -0.001617414173654734
2044 -0.001359949139088103 0.003229157407714145 0.002057406134480262
713 -0.00037917253013851 0.0011446917726921088 -0.009297501678303642
2048 0.010537859112136056 0.007942681335775793 -0.008080488477413907
429 0.0003372040433917456 -0.0006685465615267592 0.008798805667392016
312 0.025119642327816216 -0.01916310662894298 0.0009138666844872314
1224 -0.004224044713166213 0.020008444212082963 0.016485060419382646
1880 0.02664468006924794 0.01622430587886236 -0.012732778499242184
1824 0.0032921496460916614 0.01749109030393678 -0.020565465892001436
705 -0.0017674008642010513 0.005191806115519936 -0.0002757868460294727
1366 -0.03584056606171714 0.02355162655789765 0.011971596998577727
1218 -0.005106673860048004 0.003137311714906812 0.0019633447624715443
2047 0.010778046420834481 -0.012189578753939539 0.00333989526762249
2211 0.021627019932990925 -0.0037334469234052165 -0.032573771833021674
2046 -0.006591746348900932 0.002793429132471369 -0.000709322334484762
1216 -0.005753169678971813 -0.0005356225244133594 0.0003839991750660003
653 -0.008843250683610087 -0.009472641537155798 0.028097893914310796
988 0.009405736727162554 0.002106874410362275 -0.005489019482977527
704 -0.005682445972685955 0.005509834496079512 0.0013382418972628601
1659 -0.0036081240241823517 -0.002217932608229729 -0.0024542950458063912
1230 0.006433219806732859 -0.0008339074792172797 0.019735343395469687
703 -0.011554925201795088 0.0007929218768761458 0.0011385703302637298
1530 0.007001884301094559 -0.010214438987728822 0.007126194154121414
1613 0.000285613462765671 0.007279069296895984 0.007008225476083395
1594 0.0011471857540477082 -0.0004133849396582874 -0.0023992403762923727
1665 -0.021833011105183365 -0.0011650034723083397 -0.01954658066763149
1969 0.013712090678191565 -0.0024154544398423635 0.0228013185173463
983 -0.00424619411941613 0.004397841038844107 0.0048110436405819764
1363 0.014399000876244891 0.0057545691281629145 -0.006841811044609216
1970 -0.0015339663324373217 -0.004628121108095691 0.006425971634783897
718 -0.0003546638777472881 -0.005437984023360388 -0.01612430888748891
889 0.00329945119722518 -0.012585432107551132 -0.0033366761543597565
884 -0.0018835094476418019 -0.008147640576586105 0.0016062889007933216
1524 -0.00023773930939265578 -0.0030978771939965863 0.0014850862886122702
1196 0.013074909166529146 -0.04174398069115457 -0.0012380695357998611
890 0.005587969165460971 -0.014193780981343714 0.006098735293665903
888 0.01104989028010755 -0.02210052436771734 -0.0014259373801973657
656 -0.02969659743322557 -0.003946044323022703 0.008921017132322923
568 -0.0008836814725038499 0.0012908485106850457 0.0021245913390550344
885 0.00031876656324523263 -0.0012669894425591085 0.004831666253564374
891 0.02048384128174678 -0.011577235136917106 -0.012954871127992365
575 -0.011178383817901455 -0.0011996360451437262 -0.008644926005188895
1060 -0.019984354725865575 -0.007081485542879092 0.00907114628066764
1061 -0.008037424354297402 0.0045628392514209595 -0.019525379482993332
1062 0.0013782882024654971 -0.004942712593091378 -0.017483658612505774
1056 -0.001453377536459339 -0.0025009096351921813 -0.002115092575058035
1055 -0.002303710981491106 0.0010626278584223794 -0.0074153569411994965
1054 -0.0038542956376944383 -0.0018834249637771365 0.005445847957260494
1057 -0.016684651980355646 -0.0061503045959412405 0.002717174535090683
1058 -0.0027238924587421843 -0.005155065144587646 -0.007354217613794309
1620 0.015815368277420902 -0.002157295680712743 -0.009018674380758027
1614 0.00506676960896042 0.007989798736349533 -0.001892667263399233
1197 -0.0047498889487320355 -0.01780452716505424 -0.008195872050027291
570 -0.0034066767222789888 0.00300815781274614 0.003325689364138475
576 0.002121216613619385 -0.021564034661441352 -2.4571519753399332e-05
1191 -0.0011242648111990743 0.004824455250484574 -0.005052786669218746
1192 0.015151730026458449 -0.004711616787957388 -0.01636050748176869
2127 0.004891150165209348 0.004612014786735424 -0.003946120051748335
569 -0.002695922025344599 -0.0011958453604550574 0.00039948036795856126
886 -0.010026453796942053 0.010507277955743254 -0.016893782282345633
1782 0.015341980404797168 0.004991735973755796 -0.010726900717399646
574 0.01817379651705078 0.0095572093524444 0.0007962715641569065
922 -0.011668953138149736 -0.007915017473462679 0.028410963108583882
1031 0.013373432864413084 -0.009701572646870722 0.012064244694486328
1030 0.01092775351556669 -0.0016694307433110938 -0.011704090331279988
1027 0.002402393350904664 -0.00207931653257374 0.0006034043985359222
311 0.042981603369430806 -0.022077163209540743 -0.015136187627583621
2126 -0.00465705410793768 -0.001405790185999671 -0.00016599714845667832
1190 0.0029959482624577626 0.00011906062737105328 0.004774011992432314
428 -0.006665849781509065 0.00015710090112475397 0.02098750876667083
1598 0.016604372882672344 -0.022748354103611697 0.012523051826127778
572 -0.02919762284318443 -0.023772791099827145 0.007323832984438796
1602 0.0012858368414159697 0.020844044068147726 -0.027638108496610702
926 -0.008751277263703904 -0.02809830301866182 0.0034048648843883296
883 -0.0032350804718617857 -0.002399924766872719 0.006746900003567355
1615 -0.024675579295582107 0.032788654665990055 -0.020169697668065194
1195 0.017459264853619552 0.01641706162684212 -0.003704957585097928
1529 -0.004256940868571926 0.021888047670534566 0.0015655186652961293
1599 0.010835624036517081 0.02826034204873888 0.03495927235805953
652 -0.02014139789738626 0.014064076193256756 -1.829005772857028e-05
712 0.0007651734702307012 0.0002685657563058818 0.0025717811343981185
1968 -0.007102605183684209 -0.0026074120702803674 0.010897112798909129
1595 -0.0014560812359966217 -0.0017758855106763522 0.0074398181073918905
919 0.0035288562774672336 -0.0072899045636793045 0.007192191214072218
649 0.0071070295182724735 0.0009035296897255148 0.0052376934157040535
920 -0.00013419396439782696 0.003501609724465731 0.004554836672900551
720 0.015811876685432612 0.01939188066360379 -0.028991353775850395
714 -0.005200085982021766 -0.0046351937940573495 0.0010690168664564965
1596 0.002177739921857056 0.00209672081251621 -0.0031551632147547946
1219 -0.0022002252388812265 0.01610059166025158 0.0001115136668318615
655 -0.016255655540515414 0.033851779368847354 -0.0017032093761279433
651 0.00018817198931109417 -0.0021623914747322067 0.006825933105817699
719 0.01217843723348835 -0.007008344443468171 -0.015007250241603834
1601 0.01803472454287074 -0.03251313818146298 0.0013771861456857298
1523 0.010007819523336153 -0.0019050860832792174 -0.003244802945205338
650 0.0035604323069931164 0.00206607322088881 0.0018761047199965233
1597 0.006665882415904754 -0.027290970615091083 -0.015610763740588975
923 0.02211210878742535 0.004655596778455632 0.02200123411972557
925 -0.03866709904937021 0.023480000741135047 -0.044517277347207264
924 -0.0344804119748452 0.02449835693243193 0.01809512214627717
1600 -0.044237658776797265 -0.005606423767099363 -0.02914029467875015
211 0.018033344792027103 0.01962545618179254 0.017658762873147802
1259 -0.03596626226764081 -0.013061879011104205 -0.025225680994795455
2130 0.025501819300906756 0.005018744081318113 0.0027278045512561517
716 -0.015710523074471933 -0.026184061240057475 -0.00704104493740706
706 0.006356715330024161 0.01076264108177283 0.013478772440606916
1382 -0.0059940776082050085 -0.026255525191229076 -0.015291122328780177
2052 -0.005383749631099438 -0.0076073539120593255 0.00664080511193229
1130 -0.022104291784858614 -0.005136908647768478 -0.011469857695944387
273 -0.004387129901174902 0.002769667040520359 0.0005217786507098944
279 0.019916138557362836 -0.01745830658342597 0.01169472343905058
840 0.002119061198854841 0.0029307519869828835 -0.0022113246358059684
846 -0.007770238022570266 0.013668083109884648 -0.018539997393307514
272 -0.0005270238981934127 0.0015260352330560116 0.0045893918845216946
2129 -0.0026137378082440464 -0.006739918881013771 -0.00951939440278774
2125 0.0013977711781199835 0.008452571504718074 -0.0072939339115847684
278 -0.026131679907198568 0.017776166826262034 -0.0012475640765170423
271 0.01409289493353309 -1.5862829946801775e-06 -0.0025533012462993577
277 0.007797696301542209 0.005639950019755314 0.0002956832026543898
1498 0.009550587164610594 0.010135287337761409 -0.028420914703105198
839 0.0014330624887826072 0.0007117764081426716 -0.003324740295062837
838 -0.007571597272061952 0.005984213602004006 0.0027048780180095734
844 -0.0012107594974019337 -0.02056220047611996 -0.011275006330609188
843 -0.01901898305671575 -0.0244180707320579 -0.010482659487633826
845 -0.003412620324023247 -0.0239669218256227 0.008131971547061348
2167 0.01387214089777055 -0.007857794802285262 -0.013166535334587313
2162 -0.002972466397494814 0.00044589959032560625 -0.00436516556212834
2168 0.008747216368329794 -0.004270403500668015 -0.03113316088879852
276 0.005171845279858956 -0.03217608009206629 0.026382380842882105
1156 0.015130443850903251 -0.006753258892595827 0.03026433957289925
469 0.006128415444035756 0.0002766486032365234 -0.00143349153884821
987 0.0042970594339042465 -0.016750480495255276 -0.026575604510614474
474 -0.002567755204185596 -0.009623737715420072 -0.007524339450551764
2128 -0.04195942699020644 0.00019600669160189642 -0.004317442163090971
1978 -0.014077507526595848 -0.0006391509984031479 0.0045282721843080504
1099 0.001367227889245069 -0.0020041711772601904 -0.0006999552179416831
274 0.0032235965171100115 -0.009225577729536215 -0.011885189928635348
2003 -0.014845173012780885 0.0065422483823321855 -0.006748434692709724
2161 0.002058670852341496 0.006350183609688555 0.002940340593846523
1260 0.02375618423354307 0.001370798081259358 -0.007298383685280536
717 -0.017829268551005396 -0.0005978473199965359 -0.015249850202249475
842 -0.029496793713423078 -0.011358703962341295 0.006873832358715703
841 -0.015194353303852213 -0.003133057497287952 0.03207801860685623
235 0.0011072730023996833 0.000772178415834059 0.002989498094091878
1004 0.00897994364438498 0.022938053400431948 0.0028265481294616193
275 -0.004126470046323782 -0.023017337076879384 0.0001556942540862889
17 -0.021182776194763473 -0.0016178483152118628 1.7936573860663483e-05
1157 0.041381267405314476 -0.0017054647211888767 0.00460446877731565
2165 0.006273506278277836 -0.0068758093874941835 -0.018395035755606567
985 -0.002186252872147949 -0.0050772360759254636 0.010261945332322353
1107 -0.02006982065333084 -0.03003846865918573 0.009279070399238313
1569 -0.0006832295195828642 0.0024607877640455767 -0.0008463945605846114
1160 0.010413606715862661 -0.018309384389016276 0.01646071261202625
1153 0.0008351408373466877 0.0011041036466701158 -0.0015836604478075297
240 0.001826412400133514 0.01790968199232081 0.02171136721645374
1158 -0.005884309434942657 0.028263694005473353 0.009541709699858528
70 0.009693357049610843 -0.009696093534947547 0.011657233218007879
1155 -0.0023381447586996204 0.006920648056434201 0.003577177232679604
1254 0.0034583203351877343 -0.005652814321939894 0.003688445334657527
544 0.01967175568522921 -0.005901250425912078 0.0006909867327799718
1154 -0.0031698313608057443 -0.0013747586079755534 0.002915433571877299
1159 -0.011758766918763291 -0.0014609225775943794 0.013537216033480487
541 0.0055365043823165485 0.0010118028983903285 -0.007210659492323732
237 -0.0006138167322730187 0.0007553530766080526 -0.002773813261036834
1161 -0.004177096642383483 0.015884641108102705 -0.0018751573801557271
2163 -0.0023073199196114837 0.002617182168564992 -0.004804523106506439
801 0.00030339745818226514 0.0005514218974975784 0.013398815763289192
798 0.0023173233022953767 -0.021831550144125925 0.011122906921110993
795 0.0008434140333737044 0.00017567487613229303 0.0003431137537174256
800 -0.004866855012867188 -0.009039687586125498 -0.00945537463190634
1494 -0.019895333090533544 -0.0072188912046880745 -0.014382575223667513
794 0.003601647965473011 -0.004693188261366935 -0.010024155522835391
799 0.012034222418232094 0.0004100901763031279 0.004203986075669959
590 0.0037155002770975945 -0.013927683069187399 0.003758790626819184
793 0.006642783700298077 -0.013639536371462034 0.0032782496251452533
2169 0.005331732490530939 -0.0004455753298927827 0.004441396408734558
473 -0.006970230192518198 -0.028633466102892986 0.00573689119887089
1487 -0.0026414563962680834 -0.0011746171479250077 0.005981001576917
1492 0.018167513565937137 -0.0015131651770059343 0.00864424515913845
1488 0.0004909222674863189 0.0027458287972729136 -0.0001974139839924367
1486 -0.0023803094077928287 0.005472617321862731 0.0016083866956019706
571 -0.026758233984720596 0.0233304422366928 0.01334260427440112
243 -0.0045190010047601314 0.012890882592656475 -0.020145341111271288
1491 -0.044968226862206195 -0.013852457204554523 0.02048385571770662
71 0.004571971540099605 0.01418890520748584 -0.006328325065623402
324 0.025307738558754112 0.00045575905509440324 -0.005131255616804758
2056 -0.005487753601960101 -0.003864012419237981 -0.015156147997560073
1489 0.016473130252473902 0.020904205507218037 -0.007147730241160338
1552 -0.0003787738617276634 0.0005869113289696709 0.0014387782047610613
1493 -0.00752199362738475 0.0181961028540615 -0.0041853871721385305
1007 0.018586314528672366 -3.452533317082709e-05 -7.181733550920292e-05
241 0.009655303221973686 0.0010665901656177416 0.005675642886728533
236 -0.0009051753175702737 -0.0006979750244298437 -0.0051022873453302605
471 -0.0026440186348575313 -0.0037855684169283824 0.007377245628223818
65 0.0005575095679346382 -0.005205381078290483 -0.004831610712165859
318 0.005142749998805365 -0.0022914703981874044 0.002528653114363345
2164 0.00979186315568768 -0.004188358999451619 0.001644565361814158
2131 0.00550703979595356 -0.007036832498901643 -0.0006003391058981917
610 0.002534824250772953 -0.01101598263011841 -0.0007404578939141593
16 -0.021289086324789232 -0.001104223855902623 -0.0023485691947193418
1473 0.03204269285854738 0.009676454981634967 -0.009261376165799515
1468 -0.007344417819182784 0.00017862094356569264 -0.0017062565104448335
1105 -0.02235260005927296 -0.00851982293073304 -0.001019221769123397
1471 0.018105486638959726 -0.0327417804117554 -0.0014765295138183913
605 -0.01138899737149878 -0.0017304742849574564 -0.003303929493674646
317 -0.004846431190819374 0.0028783331711818424 -0.0035845097358721064
1100 0.006248691770315077 0.0033929821223104375 -0.00666578168001936
54 0.010116894745564622 0.011052401927218555 -0.024898975184674033
796 -0.028055066351368497 0.01476438214215577 0.016176592508778564
470 0.0009748163654503616 -0.0003988753235235809 -0.002366286979673963
1104 -0.006413176767650863 -0.006821154288635546 -0.011496204767041933
754 0.023144297020456443 0.04573787293053768 0.013056607976227845
1162 -0.004869196321455436 -0.004631947642473238 0.0028005044192843426
11 0.008118086130860855 -1.936977850623569e-05 0.004028988299559488
543 0.0033455091510171137 -0.004317124862142105 0.003911757344004641
549 0.019942585804064817 0.018935353631510585 -0.009572383214126581
13 -0.016482513697451667 0.017903561416884196 -0.005665448024531066
15 0.0032253936583536867 -0.016550433593531623 -0.012312860117198622
1164 0.0009461265855483323 -0.004490989057546881 0.007912249779241144
10 0.002065881251173951 0.0025676170255973622 0.0032072632684176016
14 -0.005837781865722491 -0.0060003287782320214 0.039900473824510285
1170 -0.016328863588431587 0.010139563517835622 -0.019695821035634744
1167 0.021167080765593854 -0.03023153093657691 0.003129980322867147
1165 0.028375437514612276 0.025256701043417353 -0.03731864082439942
1163 0.004140606515185381 0.0015918014634280703 -0.0008571274431626734
1168 0.005969347560992178 -0.017404222596345255 -0.007073536044474152
1169 0.0186194425207238 -0.011734932067844305 -0.02663754305543027
542 -0.0029482489801111473 -0.0009607398047828409 -0.0018519902038750076
286 0.0028718448747389958 -0.0016664940258891037 -0.012164387441849767
1166 -0.009744581688982288 -0.015006127509867837 0.00372479700617362
715 0.0009629527698185358 -0.018757255079894713 -0.021491595533159314
281 -0.004828935689208533 0.008017017922071209 -0.007173247198248981
1101 -0.003815321471861767 0.0006535062063205492 0.0045587635838071775
2057 0.01297829103629229 0.027277564521703265 -0.027622196212105543
548 -0.007718399834613454 0.011105405571553933 0.004770142077359076
2054 -0.0010884661591560568 0.0054495459714168455 0.00030864094595828485
545 -0.0045272161537532035 -0.02796361946301292 0.02148601121114728
1005 -0.008187292169132948 0.008688472761005223 0.016559518434321543
2215 0.004468570636907512 0.01129045091630254 0.0013837336964814245
1490 0.01301539879393533 0.02124670086917589 -0.008984572283492405
323 -0.015383136836130172 -0.007549652987958238 0.007075337801490819
2218 0.030101927160755153 0.001050724172433517 -0.00021464113370484557
2166 -0.04454359516493226 0.011194279424551912 0.01219576451688197
472 0.009148216293523637 0.007838363909015319 0.0023970749641497088
2053 -0.001450724222242772 3.093502705528283e-05 -0.0018416073533351924
765 0.006183913199869162 0.01586220617940621 -0.014209707246898977
547 -0.00524885616274331 0.021303143228933664 0.010729457151678435
546 0.002214910950953752 -0.004395818419951401 0.0032802754271104304
2058 -0.015641831462401452 0.03598750281627951 0.008852158312811472
761 0.004730930827265037 0.013043204148296973 0.018001016424720632
759 0.0019413529891137906 0.0011225896909050608 0.007274165246247441
764 0.026570784835351774 -0.026288614465020472 0.00642370000277165
239 0.008768598602403976 0.02351226628312719 0.0037441025066616875
1575 -0.0011998286426017379 -0.016216377380726916 0.015283361545552113
242 -0.027621796076082943 -0.013514105424235933 0.02517082658798151
1502 0.017298446073078764 -0.01703702161202402 0.0032423893331395164
989 0.015174989983451004 -0.014120821057509577 -0.015257410791621899
322 -0.006043911204621161 -0.00774929126518863 0.017648955707593127
124 -0.010188411143393812 0.002140456046552197 0.005857083828903233
1999 -0.00041241133662334205 0.008661799162193787 -0.004938144590948087
1553 0.015126347378139195 0.0084870168329543 0.022395891767776347
1556 0.024613250485472405 0.014837816611270923 0.015208324772035051
2219 -0.005557819750393257 -0.01912530166268716 -0.032834157554700635
757 0.0029439853004687238 -8.90623169895875e-06 0.0019400615588509849
760 0.00713728974965802 -0.020669141686925553 -0.009448211906645701
762 -0.014554488803207394 -0.024179523681796246 0.004169660421903528
1554 -0.010481318387273347 -0.003540410130456495 -0.01964052744405353
758 -0.0008859534928812174 -0.0028811474938012665 -0.00528952683149822
1550 0.006001043636088585 -0.0031249735938332595 0.008913143241982717
1551 0.004950793231942998 -0.002163310371329395 0.0035602701775298744
1549 -0.0014052679776834966 0.005628841053786329 0.0033142472869048274
2220 -0.013974735963910185 -0.005560182941016428 0.009060647909513702
1015 -0.045402022334496486 -0.01910884916905071 -0.013150743416057287
763 -0.002087778041226607 0.006703405994784889 0.01695776261150863
122 -0.014009644207351412 0.005001862452843783 -0.00919547086187141
1555 -0.015984539843619975 -0.008002595322889662 -0.014822108728019104
797 -0.010882658032510501 -0.0038341356378910024 0.01773446434574889
982 0.0026614541604756767 0.0032318462914655375 -0.0027781926129642506
1495 -0.0051222442892679566 -0.00039159045968660837 0.008818551095687624
986 -0.027776930008861545 0.00665887793362288 0.0129055377124112
2061 -0.024311619541745492 -0.008634571807291073 -0.01875634293708561
125 -0.007592362621939688 0.004231588412684673 0.0033748541410581912
1078 -0.019568021630825907 0.009053310487980784 0.005359045217599146
1409 0.01833893308710962 -0.02793688627073064 0.014081283017825946
1106 0.008418476732301393 0.013700112768022094 -0.0014458392962171291
1102 -0.004379187398713581 -0.013493351532613959 0.0017587666183604335
12 0.0035379514636560312 -0.00017404396216050695 0.006016942359990638
152 -0.000670189280171718 -0.024351550747823515 0.015182875211684724
1017 -0.019282291843254317 0.010740434323616044 -0.0031290198672703057
48 -0.0001368726423257857 -0.0038092175839478833 0.00017069094983973392
484 -0.016202004126026997 -0.004532247446368475 -0.01263375286034539
573 -0.018564625502165494 -0.01651878312576657 0.009553445941584748
516 -0.0046769578414781144 -0.003270609576439535 0.0017146105974188016
1188 0.025372978921251524 0.00723310327446462 0.012242820207090969
1187 -0.0019256957499345813 0.006756891934352564 -0.0008842716567727197
1935 -1.138904410251997e-05 0.02886814108475436 0.01797377788188887
1182 0.0013047750748189726 0.008711793455700034 0.004460039248070218
1181 -0.0016160444569071934 -0.009628714892180404 0.0021159794631550426
515 0.0016402366497364578 -0.000691872013390946 0.004804796181544087
520 -0.024053677913904496 0.008498374487460896 0.001293478740519529
514 -0.0031318069121334525 -0.004136247805980795 -0.004382294329504864
1582 -0.014524636175446842 -0.004843802138675449 -0.002561366645556418
518 0.0204746400040805 0.007129408793250419 -0.02413880778293047
1576 0.004333641168213704 0.00022660787008740228 -0.002243876348549024
521 -0.024257074191672636 -0.01514573037319793 -0.005794154458326488
519 0.025557144297941457 -0.0056018057546416205 -0.004842194826560373
269 0.023065616160961297 -0.017994829455308302 -0.028024158500584026
2090 0.00201532694116163 -0.005003891392253841 0.00473554008559204
864 -0.031920456649630426 -0.0055498833681169955 0.001497793185572341
1407 0.00021034304347077154 -0.0024550852057183335 -0.004145735926611293
996 -0.010896537692227974 0.0036153759737806834 0.028181853219000068
456 -0.007553680179752762 -0.026488599367079327 -0.006456781335832989
451 0.006412039084208311 -0.00529085278224267 -0.0039451256623570935
1326 0.0017925519561551966 0.00425042741370274 0.005518819227104929
1383 0.005677918233942009 0.028987417688533964 0.0057794188167577315
266 -0.021158886378056477 -0.0011627764301099387 -0.0005516881409858058
1280 0.004130689177178598 0.006402693063566143 -0.00586061313100819
267 0.002998681309466853 -0.003729701133616362 -0.037188719427484494
262 -0.006520512745244355 0.005335748043795061 -0.004499936212299192
1186 -0.017029850484550836 0.014969568512649705 -0.009892927178907386
522 -0.003341679217826816 -0.0011791165483524234 0.006670002170995895
1283 0.008462796539717448 -0.011761762938602621 0.002591354982560181
265 -0.013395577045923516 0.006255266756123684 0.01954875860002811
938 -0.003932319096835144 -0.0027028676555319016 0.009173117525643383
1282 -0.016734834697798056 -0.014748128544860078 -0.013647606983338516
508 -0.0007177104387041511 0.0005151206870292962 0.023890803791430763
1279 -0.004490562542878026 0.006750316574524631 0.0009990322819661381
2089 -0.006320731067162651 0.003245912234963522 0.0037166844005310437
1180 0.007426943707443387 0.009275240548923223 0.0020721616210482665
1183 0.016986702006930934 0.005027941158369112 -0.02175420094606158
1309 0.007909056678864825 -0.01209025994387775 0.011499955241400078
63 0.021024422389763615 0.006579788729880226 -0.03094950520866007
1276 -0.0020747906424618545 0.007662306918896268 -0.004653262956298637
468 -0.014043904641948718 -0.011151255485791671 0.004876972907490687
529 0.004380127040543523 0.017317957593710312 0.01527098364616255
1581 0.00476874781465838 0.01846096807350387 0.006858305605153814
1840 0.032455864262023675 0.014020800716095629 -0.0063085486332510364
454 -0.019118412504291873 -0.015327480010660212 -0.0025116280897913676
2094 -0.0004729558186134092 0.018071880365419443 -0.010813235748515587
945 -0.008854869041134094 -0.0010515527373663957 0.0035391296858168116
270 0.0065446588009007494 -0.005134927572528297 -0.004862877905815688
1643 0.03060382226342278 0.0008532735262897978 0.007637260862367676
1839 -0.004692514815286973 0.0025705925382439637 -0.0021107774543833555
863 0.0014511727307192435 0.01635543701887409 0.011606429469197923
1286 -0.007675244806758781 0.005434599493890658 0.012385805692931635
1247 -0.018570045635411963 0.02453459833239463 -0.0037032307156566586
1845 -0.017869792060892963 -0.0008139066204263456 0.02052046944634418
1642 -0.002123468546052709 0.007423991289208965 0.0018585223686256977
298 0.006992083108298249 -0.010405568308289526 -7.52326870576425e-05
1184 0.027496423686927837 0.013742009028999852 -0.0019527622437604916
1185 -0.026175029507305707 0.026514261574032173 -0.006163761395079847
1639 -0.008269177390288042 -0.0013190222084296847 -0.004707526458249969
1644 0.00246563335611488 -0.009367171952174536 0.00040537655789517894
303 -0.004660574299676056 -0.0032159137806465365 0.036683156929876816
301 0.01074840166158773 0.0020329723406198293 -0.002310707304937037
302 2.7506950490791787e-05 -0.021106441142177915 0.01096318247175029
510 -0.019139612704027885 -0.014360547081580832 0.005861677273830614
1640 0.006359958679800496 0.003340172458965192 0.004703280295961749
750 0.001066115912707408 -0.0005225670632109911 -0.0014993608519525683
531 0.028548678573915517 -0.03180235575678252 0.004768670903741622
1294 -0.025639870713891618 0.01403248280947211 0.0316952409011387
505 -0.0008596928067289652 -0.001228303181462363 0.0056057732923530295
1844 -0.030228244593466378 -0.01557142148854725 -0.024134056477346146
511 -0.0067094642645647885 0.009943206781935155 0.009046636142421653
268 0.022656576108239283 -0.02876429077909096 -0.010925499667868835
1837 0.006429201945935019 -0.003876473713921954 0.002495600664424952
1841 0.00962731180940433 0.024228545911758576 0.008964799151589327
1843 0.025441538826433935 -0.00011455656543200701 -0.006164516724768883
509 0.010876908959291226 0.0016443280582495246 0.009770000430316433
1646 -0.013814572806133083 -0.043244541560640316 0.0011789631828629295
1645 0.014948971028430806 -0.013516079971914327 -0.007268062526593388
1842 0.010850567862232284 -0.022814301230201093 0.027866774748918494
1838 0.0022950184538533757 0.005420861391921943 0.0005315760280838853
460 -0.002941155977914941 0.0022608011998263905 0.005750505045111324
939 -0.00479769664248745 -0.004977793786298315 8.10276983395207e-05
1246 0.014876762420548893 -0.013616822217206866 -0.007000099997301339
1285 0.01973789700915937 -0.004115233958549612 -0.0021977356934916557
771 0.027793525060615023 -0.04460409025457094 -0.004527404293977599
264 -0.0021745442123532075 0.001690524109041208 0.007464781134529662
1278 -0.0009070043847976089 0.028083530363376377 0.019914458851783723
455 -0.011970611165242034 0.007468035646242977 0.023352041551473118
937 -0.003722955147929434 -0.006279750258636607 0.00038718384860816744
1274 -0.006573749977900879 0.010496916518295365 -0.012413019701647182
1277 -0.013973224664592927 0.010500452255704992 -0.022822627351489804
1270 0.0022332327327582195 0.0012647820676938506 -0.004840170358749674
2124 -0.006023275664046869 0.007230181442838554 -0.003025651995588991
1128 0.0023366827520917696 5.503850105311351e-05 0.0016144471657300978
1310 -0.009910620384199865 -0.037451146299281035 -0.009228845231562506
2096 0.010403402242818554 0.03508734818529164 -0.012276184029516822
1272 0.0034584352272826156 -0.0032725755047316595 -0.002205963268261835
944 -0.01900183632145103 0.03750716406200266 0.006982718779807694
769 -0.006809901678129246 0.01592881942925563 0.012271018029748105
1327 0.00040085901011624974 0.01816923869462637 0.011488460244421041
1329 0.023267377216943767 0.008728037796677787 -0.014855491436949543
1293 0.018851786761520946 -0.000298229444429091 0.0034685515097786015
2120 -0.008681040291143291 0.002690158727932504 -0.004201291394629621
2117 0.009038745849408435 -0.005139355053041471 0.003448597160917718
1325 -0.0016269814152685097 -0.007089317394379295 -0.0010275640716144912
1324 0.002507471974515966 -0.0025459316755756744 -0.0048654545901078506
1331 -0.007922408283124897 0.0007997679376273283 0.002945853139653931
1328 0.015871040683372434 -0.015040989350190234 0.024727857495169096
2116 -0.009307837180225823 6.389814091628693e-05 -0.00036545651630882626
492 -0.010847387205344085 -0.019494863520527435 -0.004170380805998532
2119 -0.015432784137488425 0.017525768059228515 0.0018473678763830728
1271 0.004637116266464256 -0.0009595825506279231 -0.00445083651663025
2121 0.0023684292796573563 0.006678458918786502 -0.028548451478571112
1284 0.006154753096566408 -0.014487671006225764 0.005957164639608408
2123 0.023132624827037835 -0.044620086267935975 0.011214956969061938
2118 0.0002481418885144465 -0.0028146530790048737 0.005452851373373577
2032 -0.0034177993050482722 0.0006581711076015007 0.008838000817337054
940 -0.03588075148594809 0.007360197551715485 -0.018538565612743408
1243 0.008439478201093236 0.0057907770452715395 -0.002922791696306648
1127 0.00642794005252902 -0.002487404991988033 0.008360880215312226
1134 0.007278745390541373 -0.01616133150064881 -0.026024802366651775
465 0.004452902643078725 0.00015709473687975417 0.009808758100340882
1578 0.001224892942046467 0.0019678271779439193 -0.002865869108318087
1132 -0.020262632037346497 -0.015465675180830963 0.012290951810244465
1287 0.02394578295407685 -0.00447579825744109 -0.015103501895617181
489 -0.0021303705567357694 0.0024419554262892287 0.007335251869352918
1273 -0.012445611453359436 -0.002941982758800171 0.004285776223395408
1306 -0.0035439410003932246 -0.008942505284432899 -0.0008854795425519841
1133 -0.029359925004123544 -0.005540361883042231 0.0105937526403275
1275 0.0013537026733133931 -0.009916118170361256 -0.01555328578142133
466 0.020887021675839446 -0.010861795218106207 0.04025841980948169
1577 0.004300530596757212 0.0028729097534054312 -0.00021306344949477687
942 -0.016163616346885547 -0.0040591740943484115 -0.022615263087401246
1671 0.01699020503576957 0.011209073758621646 0.016095837875488204
464 0.007896958797777631 0.04502301339416988 0.01506902318097035
1288 0.003150092469637644 0.002493307732069409 -0.0016742983766524142
528 -0.019708306649078234 0.013700680386272594 0.0015949606525369033
263 -0.002664596687352743 0.0010289073792191553 -9.811845808597812e-05
1672 0.014678819134859765 -0.008848403311516349 -0.009286207083098382
1795 -0.006629939524380269 0.02262529545635821 -0.025096032032030122
530 -0.013330036392832341 -0.013622169124486638 0.007786672926102874
1666 -0.007191597681127247 -0.003930506737569453 0.005634395392735248
2122 0.02134862799130888 0.019890272537430094 0.021111611820579627
1406 1.1227269159137431e-06 -0.006475163621348261 -0.0016014158377220867
1291 -0.010108970329081018 0.0014659286990311045 0.01777399739347049
1411 -0.027576919065835308 0.0118082746026227 -0.005637082049642401
1669 -0.015445121118623496 0.00673478777176555 -0.009967964242273974
491 0.011372200750390275 0.015038407712351499 0.015715509710474834
490 -0.002014038261230833 0.005404835766200666 0.02216278679215891
494 0.013094811344022668 0.024458244740486246 -0.03909474208076963
487 0.003203005742914042 0.0006024525272759169 -0.006436024446750005
1296 0.014351994304441 -0.03371276561326216 0.020978382451478816
1289 0.005963328023314758 0.006213659149608653 -0.003790251283060629
493 0.0014225692973197088 0.0022142687374483 -0.00747572656479486
523 0.006090663121053297 -0.005300098264683713 0.0008448258253630078
1295 -0.02196796228162651 -0.023620398051281983 -0.017985572114387706
507 -0.0064516544139845205 -0.001332939954699998 3.760882348808379e-05
1292 0.007403774714653898 -0.02332477551806306 0.01286442321679233
1641 -0.0026848458547615163 -0.003567547816495801 0.000651786367135934
527 -0.007328416984248946 0.015403704472241058 -0.004519819896519537
1796 -0.007321781296070887 -0.0005925010172054516 -0.01200979041450993
526 0.014437919874064377 -0.008873590573635131 0.007211091634437725
506 0.006503548704770075 0.006499177555051619 0.008308144628837121
524 -0.003293522902977294 -0.001940955948218512 0.0010131678683155414
513 0.021309015824176502 -0.03745628507177493 0.019315582739369588
1929 -0.005052333919329299 0.005509512550004568 0.001788239252597129
488 -0.006314295399597768 0.0005439065296041909 0.009672735523433004
525 -0.0014327666412131586 0.00556081202642518 -0.006397088059823048
495 -0.013251051697167235 0.004727422287194899 -0.0010264570718383243
517 0.018342397524820163 0.003144577004532446 -0.00895837022977729
1670 -0.011443987392685111 -0.007775670863833081 -0.00562619083212075
1647 0.0013252032263973421 -0.004277835735249331 0.019974589281915124
2092 -0.016761935825801853 0.02142575871712378 0.009819366540920882
1668 -0.0002471003179838289 -0.004860705961859953 0.0018096853646464588
1667 -0.011782922288053149 0.007468221119872076 0.0029201793437066627
1290 0.0013340641139984724 0.0014111323627143436 -0.0013475859532397565
1792 -0.0011907150468373961 -0.0026407110965523005 -0.0002548432457251431
1673 0.006842675727253175 -0.002415414333861491 -0.00010003383873427551
512 0.009898665778806156 0.0026484355321696735 -0.019516830911610345
941 0.015391540608993292 0.011266447338312103 0.012837251888155888
2114 0.004168473974778826 0.0011739347632027388 0.005628360357480723
463 0.010235227777731455 0.0005611128061805308 0.0030021168416716824
1580 0.0031538794860481232 0.0035453087291193596 -0.031560127403284594
1248 -0.023407744771848583 -0.01181713806950465 -0.005373588867961468
1281 0.00040217712838849616 -0.0018166153275953824 0.001803263098135861
462 -0.002390884806876461 0.00012380949539308854 -0.002514313269549183
943 -0.016529803393804464 -0.004785634579041905 -0.01564000777147581
1584 0.0019172709290516757 -0.0039033711012398976 0.0041836814096923155
870 0.008985658158993909 0.0033865391777342818 0.006611168003358138
1330 -0.018194920592489443 -0.000532758457513282 -0.0013401730480273116
2033 -0.03346986343837359 0.016498269507329116 0.013264193374742972
60 0.021296159385716343 -0.0008315927127071632 0.003012261492473253
696 0.005000171100336529 0.0016311915330406857 0.0065762152540579715
698 -0.0048774273158072035 -0.0035727657829900737 0.0015291332519853213
61 0.010157303052873299 0.012936838671073238 -0.002103131477996705
694 0.005818771483199464 -0.003253995898806872 0.012070229487079902
697 0.0006073311300004248 0.04511758032280653 -0.006340328891165048
702 -0.021384381541400294 0.009249639389199656 0.007454590778805683
700 -0.019330987230381697 -0.009278290684819411 0.0027578133586936525
695 0.011124267470915019 0.0006936500424318156 0.0037576095914229994
701 -0.016126775181582575 0.000513253073344005 0.0036329392074316517
56 -0.004527083602904302 0.007404982999245958 -0.0032300875561900744
1763 -0.010623457565577477 0.007438097528500149 0.01004886414439346
699 -0.023824865929545334 -0.007443916195947703 0.03372844566239272
1200 -0.003032988572149346 -0.0021532574614567335 -0.0017335513838266188
57 -0.002915336974975168 -0.0011237390758867848 0.006886929969096862
58 0.006166524539099581 -0.011717295819727821 0.0015279162346303454
1206 0.007918131607236232 0.0021222929746227393 0.006293997983277829
1053 0.027610087277497333 -0.006228826821988686 0.027463787945048976
1583 -0.017147218539216417 -0.006932311907711116 -0.0033674867404219866
2177 -0.006868552666328523 -0.05057138172034631 0.01260105633108955
1048 0.004554195502682436 0.0003498845187509866 0.0009583787697865051
1757 0.0072691119094661335 0.0048465932570663115 -0.0017374555171486747
55 -0.0005154522994386543 0.005015138522935758 -0.0018159832897276184
1202 -0.004049579453255443 -0.011637209517211713 -0.012131316810832283
2156 0.014645718860218471 0.020216861581811487 -0.03158683099327878
313 -0.015218729774849877 -0.014591189179666932 0.0036109083643401565
1199 -0.004455058476037275 0.0030420190118649764 -0.0020904591114972856
1764 -0.010153525070538358 0.003798573141987266 0.017338288697869284
1822 0.009430864008111531 -0.012011830550938192 0.026522633537003695
1354 -0.01156495085801588 0.013214164633662628 -0.006710429586214388
865 0.0021788471314044366 -0.008279225485474046 0.0017173998752908024
1760 -0.016723244601834907 -0.0061720303113313125 0.009412761178637125
176 -0.012105774592546232 0.023061356325986163 -0.022954134015897798
408 -0.005915895945125022 -0.0036202207096393073 -0.0008395390312262672
410 -0.0034682550657006844 -0.014306371328364141 -0.00691077247501421
914 0.0015151123111150219 0.0011796297681464737 0.00035586111067176663
115 -0.007412921905198097 -0.017416058178257417 0.0031481659926860016
2176 -0.00975427258750086 -0.015704456922421128 -0.00952232420968162
1398 0.0017455625555328226 -0.0010943686524259482 0.002258057309225812
1193 0.0009250192007397688 -0.016225002005736625 -0.02627175179009087
1344 -0.0013208053712237139 -0.007302955985391478 -0.005097239169020445
412 -0.007901635758181057 -0.020578926318683556 -0.0027473642582842217
59 0.004074400488036712 -0.009166712678086596 0.0018714513013975392
414 -0.00973007722708579 0.008345949490945005 0.0019437245299058596
1357 -0.005665539538499083 0.022867200447687062 -0.017927720306933848
407 0.003729977967374896 0.00021859767145192914 -0.0020860605426373693
1352 0.00022111897103066803 0.00014328048604985897 0.0003752797254446465
1204 0.003515929727575104 0.020779156009506333 7.474831286296288e-05
1052 -0.007447537312562752 0.0075018922238955935 0.003265134055863908
1346 0.0019901765165739444 0.016035418678655357 -0.0091532027194258
1562 0.0047915041370067 0.006136038814742392 -0.00504537928359671
212 -0.010896534830832886 -0.0026035386875837984 -0.014114934716221161
214 -0.004756972403550994 0.0014899084224869908 0.004693930302197241
406 0.003994374457752281 -0.0020023569633515854 0.0012312816217422947
869 -0.01401291877939394 -0.0032733018863612237 0.03301953092420232
1045 0.00402166477484509 0.0027623488602652214 -0.00223939280699388
1758 0.004898585300978775 -0.001941847099736353 -0.0004578259617983827
1761 0.014942994653377478 -0.03146543381307722 -0.019151219800917024
1565 0.010240713109177369 -0.02295535315699244 0.004651949147110418
1203 0.0057078697627237435 0.022284373764871992 0.008549345939556696
1347 0.010501747373841883 0.01353194849250697 0.013860872294517526
1799 0.01344725898422867 0.012999068386378506 -0.0039709866244947226
2170 0.002691726953531878 0.0003519764920215575 -0.0007421191732093964
2175 -0.009662763668756 -0.04659568085018861 0.021165158588677953
2171 0.005306634647108331 -3.702852350040389e-05 -0.0001121981481814099
411 -0.017461049022698346 0.005378157456870013 0.004386733332840389
736 -0.013835499942457393 0.001514658012321211 -0.03594861368409399
734 0.0005008020245558028 -0.003960620956091081 0.0060307752053327755
737 -0.018482522317263796 0.006905226870081431 -0.016163867929729788
853 -0.009114575472055355 0.013263754575707856 0.002639269713368098
732 -0.002469571326232413 -0.0016133923996109532 0.0014333461874858388
738 0.011413113852825953 -0.03148557556336032 0.0119649079845767
731 0.0014187915655119422 -0.0012862282844160234 6.054190248702334e-06
733 -0.022684489398663143 -0.016316776220346246 -0.014858227127960004
730 -0.004847682377660012 0.0004407221311557514 0.003766743645009749
735 -0.011078286007876286 0.0013280779018533626 0.0022789193894469425
1875 -0.003155831551957353 0.006241476828957555 -0.0017260406938643448
2172 0.0049717614620198945 -0.0034899870238023867 0.002364301774361902
1566 -0.005525903356098451 0.015341139057777647 0.030796858136160555
851 0.020156753574638253 -0.003797174542933119 -0.025216840776077665
847 0.00014815384476174085 -0.001489984189683497 0.0003367697362659455
848 -0.012297829348244107 0.000985621939534629 0.0011573895760464531
850 0.0006340202468645741 -0.037566017345395095 -0.01754550059638096
1404 -0.00703202836259064 0.01617070991257389 -0.004281960973307537
1762 -0.021521864200514437 -0.016666346124785656 -0.014837196876274713
1560 -0.006244936094944182 0.0017549377014523374 -0.002413459106949886
849 -0.0005700160643009703 -0.0005713882871448908 -0.002404316484290272
855 0.01394676394045059 -0.007562343867778032 0.003478018773645295
866 -0.0021022707647875808 -0.005134787063338497 -0.005494451195770702
1563 -0.006793227697042329 -0.008225113812003929 -0.011158025180128043
868 0.0006253212856079392 -0.022599303479891895 0.00786139790861021
1559 0.006558166595057441 -0.002367043644459806 0.004253532100967247
1800 0.0034978731221439237 -0.006498736549824364 0.009032922677819471
1335 -0.0024358087038158153 0.004236544216653045 0.008770053224555575
1579 -0.0214444966382728 0.00462711154458403 -0.005660426567525254
1681 0.016421233828070442 0.005216723722160873 -0.005231745460380437
1336 -0.014295881298654094 0.00428475103000419 -0.011889358260000649
1201 0.005966423500103093 -0.0005693556422037198 -0.014701953375860227
1682 -0.005245298818228528 0.003694089451311262 -0.0056045778454301455
852 0.005493180258003668 -0.028906294161222493 -0.00892651937453091
2173 -0.01071650806899489 -0.019042767839900145 -0.009229603543882975
2174 -0.012374370176498787 -0.011307622762023671 0.011729735187716282
1338 0.004522084568990899 -0.0037454388361006325 0.012082957074383293
467 -0.03184249329242616 0.004560711338772129 -0.006933083272252794
409 -0.007453873461764072 0.0043341163452473765 0.0050464520492946125
413 -0.008605025903752738 -0.0115475858037775 0.016833989292799747
1878 -0.003811237736997054 -0.002422319394183558 0.01928592700588939
872 -0.03808442500154028 -0.002038680177458454 -0.042594280145857415
1333 -0.00023877988080570737 -0.0017719653694742727 0.0028993108014528234
1873 0.0025205720930367792 -0.004830534960930861 0.0021226990127466475
1756 0.0004795141322205407 -0.0048014815761811035 0.0017319748449771228
1435 -0.010637325769585959 0.007892177104333735 -0.011269129469345844
1397 0.008449810240441238 0.0009249907174365957 0.009192249409249184
1402 -0.004527374457317063 0.0017574676464452263 0.016873363868812927
646 0.00740618580213015 -0.021821126222188483 0.010476230174582187
647 0.03004728826187815 -0.010256679215149871 0.0008613145403442828
116 0.017352436206244617 -0.011494222971585323 0.009618152888481134
1436 -0.009363769764437379 0.0042167311418683994 -0.02584822659500431
642 -0.0014733673083948244 0.0034426358646489253 0.002064859734024844
1353 -0.0024445758408786814 0.0005350261539061884 -0.0010685795843329005
1359 -0.0017027161062622479 0.009909856861776128 0.010823664807798204
643 0.027007147265169534 -0.01690238993274631 -0.015646349030005335
1437 -0.008748408952654673 -0.0018964382396153955 0.006697462490317997
1432 0.0023523483613141958 0.003951825642437854 0.005327752198723071
1439 -0.0035706895778058415 0.018306226098444886 0.02257993840229225
640 0.003907839945652547 -0.004722286446294983 -0.0030026235914046543
1047 0.003768253199324169 0.0020840998835955434 0.003182653974103459
1433 -0.0006744957548128504 0.00025996588707677523 -0.003939680778685821
1438 -0.023478431481781036 0.01594042735653201 -0.009499083521392145
1434 -0.0010005028223395262 0.0010261836708150072 0.004813177682300068
645 0.00031867255009889253 -0.0009411346730727741 -0.0019771935820459734
641 0.003249131559100325 -0.004089867722945008 -0.003786942807802848
644 0.031047515612459334 0.020643557533690158 0.04207298918887382
1355 -0.003632040781049462 -0.034878071714989585 0.0008667668021427159
648 -0.00453965040817934 0.022362294492051488 -0.007581870012438305
1636 0.0119505866051827 -0.014357225295061303 -0.0017380402396584929
1351 -0.0020831691905271806 0.002007246763071047 0.004254490094783235
1440 0.002919115297165511 -0.0056323136821889806 -0.024374667290379813
1396 -0.0009187102041452088 -0.003177374052793351 0.008257776848238694
1400 -0.008709084795897949 -0.006522231320962154 -0.010037122999136113
1399 -0.022350737555548204 -0.01509256917243577 -0.03499063729084425
1877 0.002068501264934182 -0.005920964091859233 -0.004081852311741803
871 -0.006651339381827982 0.0027295501091855827 -0.006138291277995486
1342 0.0007320691735687671 -0.0005515113255089228 0.0003751187424183062
1345 0.011093585113499865 -0.001256181030779305 -0.011403301411066496
1401 -0.013813262455139261 0.02906074650597846 -0.00835545851661907
1794 -0.0019065500112489396 0.0014430140443631354 0.003678279894300216
854 0.00460544377798557 0.005819898853501406 -0.021228576556960116
1350 0.0028954331973454553 0.0061992937306443435 -0.023202711691944343
208 0.004324628505012425 -0.004263494973528706 -0.006595508095346619
2076 -0.02071785136921612 0.023397052141215825 -0.012827541503198992
461 0.0038306010663036864 0.006462415224667664 -0.0014014557950055974
1637 -0.013368518538586215 0.0003073187477743991 -0.01041479036077757
1348 -0.004821358189698152 -0.014152003802994535 -0.0003299791062764617
1343 0.003934815369679881 -0.0018721254286443586 0.0057936861849698495
867 0.000575304975149736 -0.0025144016067376574 -0.0007313132464688612
2071 0.0035546005952054537 0.008295712118635872 0.0032967915467475416
1776 -0.0026123150483680357 0.0014545090832841473 4.234806161889939e-06
1876 -0.018376744332524522 -0.0027002049334263114 0.04899345127323045
209 -0.002308293420767993 -0.00176379975080161 -0.005408593796707686
314 -0.012193447779470583 -0.027391520887698653 -0.014422781847505011
1819 -0.0028445319308375767 0.006944734864021209 -0.0014100949414940255
1403 -0.00015430220954074284 0.01543950264104841 0.004229262182207994
309 -0.0020277453742402257 0.006493220586646995 -0.004022216346456205
308 -0.0014409903779314243 0.001981613974170711 0.00021491456144287087
1798 0.006484890599239566 -0.010395902582922063 0.01698067825125657
315 -0.0015720839068443914 0.030859393129972906 0.016541807928500057
1349 0.0006177153299371181 -0.002241212361907424 0.0004760571725831191
1881 0.03453444248658869 -0.012803697044192007 0.0007659234091885154
213 0.0031574666496461926 -0.005916497239893734 0.014322321315507697
873 -0.0009723678841613017 0.010527716134335695 -0.00724457820966823
1793 -0.005421086871702939 0.00015354835892940908 0.005222358197895491
2075 -0.011616211870360082 -0.0068184619283549516 -0.007117177262109964
1198 -0.001347693230686181 -0.003568898956166892 -0.0055413001933956796
2074 -0.016863072902078356 0.008204946054651446 -0.010266422487532689
1777 -0.005696254984045328 -0.017782080005342635 -0.025405676341392316
215 0.006133111824041402 -0.03914346767567396 -0.00804605494342369
1046 -0.0036303486878352855 3.3053086125315e-05 -0.0034075891672310497
1558 -0.005007336588335933 0.009056232748096258 -0.005844055306250588
1797 0.0328854535990162 0.025085290141652148 0.013952474463990108
1358 0.00872679580754996 -0.027134372816937067 0.023345250896332458
2158 0.007822059084809313 -0.041466244874760035 0.009443304618218774
1874 -0.004439075406715562 -0.0005678083541608606 -0.00035677822546712916
1408 0.010272856893390001 0.005290035748638795 0.0332064130208073
245 0.0020484157992790783 -0.004769511014315151 -4.679260728801995e-05
244 0.002577707061558671 -0.0012120944837865839 0.006782744596726386
247 0.008282507066015635 -0.015492280651141891 -0.017945739828506033
249 0.017024388441795178 0.018106808963486692 -0.012474452584831425
285 -0.001532172903166609 -0.0041666772238347785 -0.02405676607250797
248 -0.005349940047579095 -0.002053211949563315 -0.015900705396399942
1305 -0.01518802976517708 0.013392934186868424 -0.00931281721929509
1299 -0.004614256989522757 0.00025715113895434744 -0.001956283053728905
1857 -0.003328175121600001 0.002135436754404766 0.0018846548897404542
1863 0.006160439820871237 0.03344380933812572 -0.00044036528293660315
1855 0.0006888230850849138 -0.0036393592400211887 0.006526153550414391
1974 -0.00040432325725114747 -0.009723660329222153 0.007986539467207827
1931 -0.0009545028774578793 -0.02450607597714201 0.0577745709394549
2153 -0.004177182604312837 0.0003399201170386098 0.0030936275951882457
250 -0.006528796151867089 -0.0194400712467189 -0.008366076013394341
251 -0.034831878432174584 -0.0032988552737266068 -0.015616344536021077
246 -0.0025221950155616614 -0.007152139875170227 -0.004308066379853904
1303 -0.010874981611684506 0.023599661641710897 -0.0014765601631718923
1240 0.004545662628954753 -0.023330770231085037 -0.00183806955198749
1858 -0.012023506371073788 0.016469717065119092 -0.016151005789428442
2024 0.01355259445953024 0.035869078969467914 -0.02948624286124711
1928 0.006141674645898975 0.007412064491415686 -0.0035917431743499534
612 -0.006272268073194019 -0.03032967192790369 -0.011212100247935251
1927 0.00031658848113707026 0.004250436680768782 -0.005987410517556135
1778 -0.01687447798496918 -0.011499315913629671 0.0011081896324590384
1980 0.024690660765139406 -0.006651464585260008 -0.0014795219345817964
755 0.008470216947472384 0.0011112405911088176 0.00019067010111211032
1300 0.008516363003094747 -0.006777891501184474 -0.012936109350064583
2021 0.010984597207567946 0.01502404953884614 -0.023450818569728398
859 -0.012296888679871932 0.0019280260971279114 0.013059369893707672
1860 -0.025627223497003568 -0.002028358526585724 0.003706270584118707
1862 -0.014398668245884046 0.015856761883042365 -0.010769674737681492
1932 -0.00930156231330056 0.0003823080109601316 0.003346264517269539
1861 0.014075089869382034 -0.0051213014403316244 0.0022657895395941925
2060 0.011915480970723629 0.00325878088694669 -0.015656610036573607
2018 0.00240461045752267 -0.0028476672408193895 0.000438491351996837
1298 0.003248869748319142 0.002559312738268442 -0.0011868848870250253
1304 -0.00561052321229555 0.013920554411049313 -0.023896170801534982
1930 0.027644975765579158 -0.010070646696422679 -0.009428326275619806
2023 -0.0072119294812101374 0.031202710974843596 -0.007573679029242867
856 -0.0016474175404915562 -0.00010658294478985013 -0.0021002552338406574
1297 0.0015585360398043782 -0.00029887787677697244 0.006323984989390884
1856 0.00566081849064307 -0.004755657440567907 0.00579032383053583
861 0.006644052201083124 -0.0028253349780021217 0.03534916222801171
2216 -0.0043588373665381045 0.004372399361213812 0.011071953961092795
1631 0.006722657351822388 0.0022464102776709226 -0.0024385138948264276
1250 -0.02289082417946569 0.01870572899207425 0.015205359611481381
1638 -0.02117212892629989 -0.03081519617618665 0.006509149698802062
252 0.01863830600450689 -0.0029802969389305547 0.0003618252406555562
86 0.006099918076110192 -0.008967340237483964 0.025291500299622488
2222 0.001866977673440434 0.00032428440115283837 -0.007955879062474103
88 -0.0006538415637803675 0.037204830066417116 -0.031194581374902313
1924 -0.027380195511504224 -0.0072324195396968275 -0.0014028783273298212
1781 0.022279321413386996 -0.012188136570181364 0.030347754433896555
280 -0.0023537564489955758 -0.001340228345415881 0.007589803084782329
87 -0.012361285752164147 0.022568742170176355 -0.020115728042230746
82 -0.010571636719789603 -0.0038712862610402908 -0.0067334976801747895
606 -0.006907407255155902 0.010688734882847939 0.002604420507581387
1979 0.023165322737193923 0.007690492118967937 0.005881119565128554
1242 0.005699461614955971 0.01669558487886955 0.004769042678904055
803 -0.009340005713161275 0.0009301177458703196 -0.004898762276934053
807 -0.029642592504567015 0.027516611195035314 -0.0058486083675853605
177 -0.00814507616848153 0.022200254660312956 -0.015586162555924264
175 0.009267859102633443 -0.005896176371982947 -0.01910491258361627
179 -0.01711307933902095 -0.0008856697386088811 0.024559875234198485
180 0.006373595654774381 0.016453864410424925 0.028975402101202776
802 -0.0006533561388269969 0.0005993479463773891 -0.002113610955668212
84 -0.002135389710651148 -0.007520640851231605 -0.00033395335948334484
90 0.0011608628620397412 0.0037066171522279353 -0.02989264174835447
804 5.0026094196105716e-06 0.003943470788242861 0.001220965759534253
173 -0.0012371843743036006 0.009637034136157624 0.0029797650849828117
174 -0.0009632025565195931 -0.005580531149950595 0.007149357508546178
178 -0.01420617462242926 -0.012661022736473146 -0.006042126615637362
172 -0.009256257260158603 -0.0026679422542963695 -0.003827445280298269
805 0.006947431307883572 0.0017733199320476643 0.010146478101764344
83 -0.006255749577655186 0.0028288756777435273 -0.0018152148707485088
89 -0.005203867806905846 -0.010652072038556708 0.007868544698684922
806 -0.010483806123917727 0.014640561571888786 -0.02488667584688432
1238 -0.004194312943185822 -0.0034081985186505 -0.005377317858911116
1236 -0.001254808642568256 0.004631212316393237 -0.004609001734254783
810 -0.02448123176234272 -0.014814468521935974 -0.02448547485208292
66 0.0004259432156802726 0.006166978133490637 0.006830820109199636
1252 0.0003519137764554789 -0.003001331627567957 -0.004556226862001724
809 0.007361311805383468 -0.017220040151248745 -0.01696999300077788
1253 0.0026167828151199488 0.004681058264620609 -0.006272154055641237
2197 -0.006874143281047908 0.0032287713951343385 -0.001821663796292747
1234 0.0037080185695918667 0.0005404946724043134 0.007915219347820671
2223 -0.000970844481252555 -0.002831923273762878 -0.01867070163691916
2157 -0.008815705997312913 -0.0037352047191208456 0.001239392151119476
808 -0.024173206505664024 0.04502155973455324 -0.00964234499837292
85 0.020282849535812154 -0.002399609154086509 0.01155212461888157
1973 0.007589426919388999 0.0008991005155037324 -0.0025109687638951096
1774 0.0021318964438143545 0.0021167262556088568 -0.004910735825225839
862 -0.020931573164487374 -0.021847751398449314 0.016300694493323473
857 0.0034859108542093743 -0.0005425161209844706 0.0047293198316690765
1241 0.003151864288706405 -0.011918858948613574 0.012719959829310038
1235 0.0007567143156543861 0.0021038841073569886 -0.010907268944626073
2221 0.0053815445816783785 0.007073645614539353 5.308544029071131e-05
193 -0.00300009581367428 0.04834501346916078 0.014136641559354787
1734 0.0048118269939904 0.014964089809521077 -0.015947108112849776
1735 -0.010657050505202145 -0.02258948470783123 0.02484298496125474
611 -0.013231817887791444 0.0041738271274691895 -0.018494803336710785
2020 0.032921558069800405 0.000731086752865876 0.03148753284276598
1859 -0.0015614719782427518 0.008946962884631865 0.039279030032090365
112 -0.014438019511438964 -0.0002663079571818176 -0.038394101806203555
1733 -0.012505168369120447 0.003982574235480947 0.009356721245968192
1729 -0.004386535328821556 0.004538667320083788 -0.008366476319424835
1922 -0.0030917678539633163 0.02446205819513712 0.019077618888868976
1780 0.024066680960145165 -0.003137621325307453 0.0037323599678227163
1918 -0.0030764634145398297 0.0003625823185049244 0.00374533736422142
860 0.0024527035607665023 0.019620216103186608 0.00334010900894316
1332 0.0018485338293837547 0.0021225679550939736 -0.012661940960975471
1775 -0.00010864567918889126 -0.011493431813163117 -0.005337689216294465
114 0.01939704000410814 0.007871143532277143 -0.010726192022260718
109 -0.0015107697949343654 0.004207856485472218 0.000854932689885478
110 -0.005753214602820862 0.005547345442461853 0.0028700007855464718
2005 -0.006561580623515116 0.013279698286965772 -0.01659073792247635
2017 0.0018562462792389703 -0.001124846228562973 0.001635840282083333
1731 0.00038779986840730573 0.0066576113770246016 -0.0043343842174805875
1920 0.002657516570745472 -0.0012637949458415283 -0.0032075589765791362
756 0.0032297116968997164 -0.01796588005726558 -0.013595491771306853
557 0.006262868981491668 -0.011761944529363747 -0.032375374855237185
555 0.005463267432977779 -0.015262664172459783 -0.01860574370043662
1732 0.013900756640779936 -0.002689813292719802 0.022516431943185467
554 -0.0012689686485252052 0.0014939620012424887 0.012963675601398278
552 0.002159014721763651 -0.003496026216983345 0.0034881888231710627
558 -0.012441155559291836 0.009400241555509848 -0.003670479594071436
556 -0.01535758638096438 -0.027135208101981105 -0.013982621920209827
113 -0.017485081896237716 0.01953178688299942 -0.012124161790277381
1919 -0.007161647946395241 0.0077258058257246645 0.003513326675352687
1314 -0.013324458417886717 0.010025135172905483 -0.0026340876881297782
1308 -0.0012310455938415047 4.1712857229512536e-05 -0.005856648062066237
550 -0.002363898660487844 0.00712317950405295 0.0050113131344186575
1313 -0.021227580784003285 0.008211007283469357 -0.003647701376165896
1312 -0.020837678850567268 -0.013260343556535792 -0.010014399988237886
1730 0.0008510005611924817 -0.008856400242231909 0.003056260357659892
1736 0.0023142471674213773 0.01936740426236409 -0.018726669516423773
1307 -0.0025942310222136175 0.0038624025768910926 -0.0030524112029113124
111 -0.0031333967784936316 0.0011608967830737049 0.003042556705247587
551 -0.0011624760384804866 0.0037444257474126986 -0.009478675583761084
117 0.01753299382786254 0.007786028546876921 -0.009595209691541177
1475 0.011666917675460112 -0.011791081705108486 -0.034739961716835625
553 -0.010075231372423374 -0.013108517791095004 -0.013693396361907677
1925 0.02290751184278989 -0.004253262394043067 0.015494437498754466
1926 0.005517161523814937 0.005536374765797524 -0.006751338111352731
1737 0.001170185360002394 0.024318503857525372 0.0015042747998079736
1302 0.002071975170428328 0.003932475666919571 0.0005283684200683908
1632 -0.0022681441194462113 -0.0038961506469823723 -0.0035491312705761033
1923 -0.0001071554259649391 -0.011544145601675652 -0.003990392244942325
2022 0.013050216615682902 -0.0009693275695720964 0.0054611229942976396
1301 -0.0028858396873211426 0.002488389927284456 0.0007513704557464988
1634 -0.014028969469162687 0.0195304522769337 0.015073084703219615
1239 0.010798908560661466 -0.011676682761228886 0.006788291728015963
2019 -0.0012821636672121224 -0.0024975773843186684 0.004620359939442359
2159 0.028527867463086016 0.019350601399330283 0.028816055377605645
1933 -0.003992668577570563 -0.007075291795804569 -0.023847828972940594
283 0.009898003263596461 -0.026002892810268942 0.0010087218354305708
2217 -0.0017765724887877177 -0.0019003031597095844 0.00011051149165934521
858 -0.001592605350000405 0.00048581595693551483 0.0051024171903522675
2028 -0.0034649743808778145 -0.0011449639568996625 0.0034202226932996786
1257 0.006305525113077324 0.012777426253920447 0.02347465487521844
1405 0.0005329515094831725 -0.0012052672265440963 -0.002413445228723054
2025 0.003157533171356448 -0.0033547559495103723 -0.011934365086360912
2160 0.011870780680998875 -0.01042799327198068 0.0004733378727903716
1472 -0.005414705447216654 -0.011604576024474896 -0.017579164919247714
1635 0.03152819858702599 -0.010311915862714209 -0.024710110891505748
1410 -0.00239117511516787 0.009475683133941966 0.00946008628162717
1255 0.0001709366055256923 0.015639394827388926 -0.03248150313104604
1934 3.580330083898162e-05 0.01632433635318006 0.0023053091467174444
72 -0.014662687237115253 0.0005340258613752193 0.010968609059691992
2027 -0.0026474202333756345 -0.004559202838465854 0.004939856141066494
2203 0.016044358284973567 0.017175931024170924 -0.0014833976757899331
2034 0.023777082184586577 -0.006804110916919147 -0.01603258290393336
5 -0.005087858663737965 0.009123276984354809 -0.0030839456304267827
1476 -0.007842367590025037 0.01122800011452151 0.013593483595037578
2000 -0.012417142712969724 0.0050510484635166355 0.00779879057640172
2199 0.0024336204648891776 0.003811235656100874 -0.004847806560077126
1256 -0.002352003793568484 0.00709255483125165 -0.008482217986183524
2029 0.019207560387772698 0.009264863136889786 -0.017275996121739415
2201 0.008545609446919934 0.008775988101051289 -0.013443407934839346
1474 0.005043773001398405 0.009145835259077438 0.0048632655812621065
2205 -0.009678269189836065 -0.0056984260452846176 0.02656339361014968
2200 -0.010646514064394989 -0.003071366878688041 -0.015640655008455247
1470 -0.0018866313456531703 -0.0014563241315151997 0.0007095851286887566
1469 -0.008654594468410359 0.0006600736367179969 0.0004906802385062247
2152 0.0029604516094023843 -0.0053330493021147025 0.0013870571830440525
2204 -0.0016095398116968505 0.015373190842904455 0.0030584225796137874
1633 -0.004254033115060697 0.011757857413575002 0.007471277340838687
2202 0.004743041375730917 0.02611726946950488 -0.025909304838942864
2026 0.0022264409675312948 0.000840204616018681 0.0036088982595115556
1630 -0.0022159446692872724 -0.011031754210162737 -0.0011962227540350734
2030 -0.008622787115888052 -0.013440143629685417 -0.0075082349690732565
2198 0.0036759949554001892 -0.0031009942454676693 -0.008852954732773774
1237 -0.008246547259385967 -0.01574306002447799 -0.004306876748025372
2154 0.0014196246845909672 0.006752757983059259 -0.009147610205445116
1779 -0.0031885018706427574 -0.004460297807550829 0.01181675687373779
1412 0.017763886997625777 0.006366995590536007 0.0058140925417833654
749 -0.002993177677550034 -0.008001774160962554 0.0018774563536889182
1413 -0.006636051726687753 0.016123394527769463 0.01105649238880802
2031 0.018558954525321563 0.01828997713195715 -0.0068951905103645
1311 0.0008588065038677431 -0.011429326461010268 0.001157164907293705
1265 0.02187279542876004 -0.023265783886104906 -0.012896382478225698
2178 -0.005755515478282509 0.00860254351984573 -0.011101469504484414
1258 -0.013648704889051169 -0.0016451099105816275 -0.011028206421314813
1144 -0.0035930269840303833 -0.001317053376910933 -0.003033207271304179
565 0.003754466186464703 -0.006684681893363724 -0.029495907903234937
560 0.007101097335957061 0.0008996163971542354 0.0006160724398181742
1145 0.0011964049589286996 0.0017169345311454907 -0.0036661778271927055
1150 -0.0031612841839380613 0.030873771874729682 0.03391906505528085
1151 -0.006177042015736664 0.008650308212625246 -0.005716323835251867
563 0.0059965342154136205 -0.011650525934905002 0.007939261288356326
559 0.00480766191177517 0.0006303936030714439 0.006960869505469483
1148 0.016228838380359857 0.004955979765296981 0.04722612034431279
1149 -0.003970871461342281 0.019288097716101557 -0.0003458215586900184
594 -0.0033445120506425596 0.004805632526015284 -0.006175780916885132
1147 0.013396380758055595 0.014659147479747963 0.01686168046659965
950 0.017537782567855115 0.017893125753313692 0.0024801974347095873
1986 0.005340521886794092 0.021324858117946734 0.027251590420590405
628 0.0008947201781659532 0.02507957527034963 0.0015942700995281078
2225 -0.005252143720479785 -0.00607797418615561 0.004622668073772014
2226 0.0030193447063433195 -0.0017815882713828608 0.0035269213799451874
564 0.015433614606450784 0.012998301440237501 0.013869616597030945
2227 0.01488592983818463 -0.0047336681304529235 0.03307727667763939
562 -0.0033939660415529794 -0.015096915722907757 0.001020209027685249
777 -0.0037770043892610522 3.946229283482082e-06 0.0013863349965720657
588 -0.005176188397767485 0.0024363782870041244 -0.0012955629087017559
1988 -0.012890590786371548 0.017995836448348203 -0.009734302687824126
566 0.013292819895289923 0.007808964766607208 0.014001197643073258
567 -0.01513750913611503 0.0032405466310108906 0.028144607776344723
561 -0.0017936191424702973 -0.0028554286242412894 -0.00082114588098216
1146 -0.0029169861520652487 0.001464617686627169 0.005809494146703913
1512 0.011276263020443295 0.020246309502787118 -0.015539230521505845
782 -0.023214452912494042 0.0010087073156551621 0.015551847433420661
1982 0.00047704615592714583 0.0045571766996137094 0.0010721893907213891
835 0.007449347211503166 0.01097301838364286 0.008857784802646158
830 -0.012329978134920568 -0.0002920002112434975 -0.003339642179540626
948 0.0007098066382534655 -0.006447354735470656 -0.0008774716941061519
2230 0.008787984195784157 -0.017137822596463192 0.009996655696024587
1897 -0.01132425019387453 -0.007299102237176754 0.015272668778537217
1789 0.00034859193443564186 0.003637004070588955 -0.01510425396601768
2232 -0.005699133147912016 0.04355828836456039 -0.033486631058669926
2231 -0.004175606996130477 0.034056927205576265 0.021348404588214406
377 0.0015983503370422694 -0.007232834832770663 -0.01713196205666506
785 -0.006953281043256552 -0.0024822751603657666 0.0060564233269224665
961 0.0242625378946542 0.001027906263595639 0.004376281860185538
1514 0.0052947058110141 0.0021601381796926096 0.0019341048206147479
1623 0.00537610892515121 -0.003219326624656171 0.0013472440473905206
1535 0.0010768721644789148 0.002435635668656286 0.03286845051880823
954 -0.01503464042583701 0.012388637140205367 -0.004262964752821484
1513 0.012411287356377481 -0.004524004197820922 -0.0027227720299610857
904 0.001958938965016528 -0.0011853059737221667 0.015670732173017753
658 0.006529726188020319 0.007398875446931623 0.0027039508273168584
1871 -0.026537904300277877 0.02825626843676001 -0.016641625344107475
836 0.007432520512296454 -0.014344192619888124 0.016060819021953464
833 -0.004920689473792527 -0.015331722736282999 0.0024516784587346727
357 0.028406434566394113 0.011137155678504436 -0.0009841154059133483
1867 -0.004671295956593351 -0.03490425964545848 0.02167356474136763
2081 0.00040563457766945376 -0.0011621004893725517 -0.0027218220732632267
831 -0.0005186544758218806 -0.002370691205238552 0.005919334304131806
346 -0.015322360645748141 -0.008614146480368982 0.005073496873702551
953 0.012036880537072407 0.015892014430995346 -0.00866860608425338
1701 0.02323516712612017 0.009595396168709688 -0.0018951147162590738
403 -0.005372117379455245 -0.0033154910037206586 -0.021740407252872504
404 -0.008683470732164068 -0.011745384685983327 -0.030689938761844927
400 0.0020425938578609555 -0.017273314479786937 0.007399380777158203
1983 -0.0022119920125170415 -0.005890742770308392 -0.00627274752779137
401 0.006334968505781454 -0.010145105051698985 -0.02228538163705616
398 9.261412875622468e-05 0.0022839069794874144 0.00407522441100456
405 0.0049526549900296354 -0.028554682659523857 -0.002116495478259903
402 -0.0045472757979204805 -0.028303064833869834 0.011639327471835848
399 -0.00020939114604254892 -0.003961516369664135 0.001665159484624107
397 -0.0008721772357581565 0.0001944349472305056 -0.005032903533549889
959 0.022880657780533605 -0.028918016709362893 0.01415224528664233
1700 -0.021152175697625442 -0.007135174093707888 -0.0279596563976881
1896 0.010046718116591906 -0.017463468296227108 0.021526640501403172
1695 -0.0004807711861422449 0.0019163826945933734 0.004576056960516278
1694 -0.006020645000693756 -0.00619197078618887 0.0028672376671499476
1699 -0.013838963327454582 -0.0003744885176447306 -0.02578098069530846
1989 -2.6999601958093147e-05 0.018926498118564592 0.011787080001777604
783 0.0004410356007111396 -0.02399838888387406 -0.00742310198333905
1817 0.0018811732572421068 0.025022158042445803 -0.00492930008018087
622 0.007631220552137855 0.00408912203213424 0.0011161199547033672
627 0.0034920450431309793 -0.007673772150582779 -0.012696884447143527
1891 0.0030036438460534693 -0.00012000463350163974 -0.0031400848026623238
625 0.0014654801191956947 0.014241369711639819 -0.011963337221645583
1894 -0.02035931096134673 -0.009288593220912363 -0.015582849974488744
829 0.00026230086055003854 0.006309145799253172 0.003041976643036208
347 0.03418213130605014 0.0014688528699083288 0.040812313268175734
1506 -0.0062953694427890705 -0.0003015005413050157 -0.0019986863342163087
834 -0.016556758027093357 -0.022530543185935135 0.00432539465017224
1865 0.003173099974228618 -0.00586148786762205 -0.00015458192930624975
623 -0.0003426726688623716 0.0010613939994658095 0.003727246371150325
1517 -0.017846344466395003 -0.009793032383138245 -0.008416787240600923
779 -0.001287298191859188 -0.03514602586852717 0.016818295112584744
907 -0.03652545097677775 -0.022482860684075394 -0.005239765231633686
1516 0.03441254577659893 0.0029406286948711518 -0.014740934659223472
776 -0.005180506591860306 -0.0035860642914697332 -0.007722478134782865
1755 -0.001627660131824914 0.004663750203298494 0.012509245939513507
1753 -0.014702955562583784 0.001003977357658316 0.00025331243165760723
1831 -0.004614550370041587 -0.010928830618805143 -0.012740979956634852
947 0.0017758742862741506 -0.006109359929376294 -0.0023386880316632573
2249 -0.008026291597861593 -0.00328441487197213 0.017813500336608824
348 -0.0005429391696976445 0.01919348192564499 -0.013366361135569979
1110 0.001984498123123246 -0.006497191031600615 -0.004644452424591801
629 -0.004126366588558995 -0.010368300098194923 -0.013369865260737322
1834 -0.005694450428141028 0.008343757074586882 0.005238306076309543
1749 -0.0026069029405166857 -0.0023776375127881476 -0.0016138025995752585
1754 -0.012831760860851409 -0.002334753153090273 -0.014223391248352096
1748 0.0019356374075480132 -0.00883914408947282 0.004238168106803742
81 -0.02843673194591005 0.02263508213337328 0.001428520127760999
1830 -0.004097426421706718 -0.0013533036939781737 0.0011698116660051707
1835 0.021783571756982076 -0.0053411571906156466 0.008204568689525352
1832 0.00409229402903537 0.021024738052210785 0.021421526657207993
1137 0.004974798841659031 0.004126062586866998 -0.0012005769667598617
1828 0.009992206617634787 0.0001570669807564917 0.003494726568918956
2243 -0.00036315771241153674 -0.0014943203187928397 -0.0028547820888364414
2248 -0.008604719929745534 -0.01840683520707691 -0.0077664861635011444
1152 0.007862296146876911 0.02499319868449595 -0.002709931244721552
832 -0.006512210528967636 0.006008637037078753 0.0007136659148316884
74 -0.0023852597187101086 -0.0032190836836494584 0.0002476968420675654
75 -0.0044866059271488614 -0.0006747377680935767 0.001948895737418618
2244 4.504477251470186e-05 0.002820448966479409 0.00333157869100285
2250 0.022045668318960817 -0.011591966766538654 0.00638512175381787
1752 0.023808600865938744 -0.02145869035944498 -0.01815552881952103
1751 -0.0594715769961454 0.004885560016574112 -0.00427096501297471
1747 -0.004407847376844159 -0.0018587253097441503 0.0003277709879346938
77 -0.011917602892433581 -0.010280172182681822 0.0158920280635652
73 -0.00019902770732058516 -0.0010744211618464764 0.002984489030228115
1750 0.0091970208100504 0.0008961901502055035 -0.014737233031555922
76 0.0201703518830833 -0.008232544298025004 -0.025037029571355465
78 -0.0016781784661381114 -0.0013771747144258732 7.12527701593503e-05
1833 -0.0009754339506895948 -0.0185858411616976 -0.014356721559211399
1836 -0.02134254357309362 0.011950845836646734 -0.01226192246836979
1829 -0.002982431182890748 -0.004184308914675617 -0.00365629672267336
1116 -0.003627804160795116 0.003423196039083127 -9.510174721067571e-05
1084 0.004824209535999184 -0.006613361509642023 -0.02083141486778086
457 0.007406290348908609 -0.019773640792852782 -0.005223507016360334
80 -0.012535797283864858 -0.002768937324358689 0.007138011345150579
593 0.013439501207124215 -0.00650392823328774 -0.02107122632242193
837 -0.0015717121947101552 -0.02103205598653246 -0.020560720037193975
1870 0.005114751085162372 0.00590525781437662 0.004593847714495654
1135 0.007110248912866441 -0.0013508086280118235 -0.0007084220348417854
1085 -0.001405688279694492 0.018403462391538682 -0.011324755555592675
2086 -0.03260523894556085 0.004184838470558996 0.011467783152427571
660 -0.00023764613707640033 -0.005793465303769523 0.0018444790789319881
780 -0.010940363922143528 -0.005811591094421021 -0.030610385474917817
1987 0.007550195786704641 0.018941102557040936 -0.020738117446149326
2087 -0.02091953806201092 -0.04238369490102268 -0.016153149187533546
778 -0.007531443487511801 -0.001600269309247658 -0.020807394317543294
371 -0.006045277606814464 0.0007094252889406115 -0.003935778542555411
2083 -0.02313088446456932 0.027424421375439323 -0.0058674273076658205
1136 -0.003111412493573884 0.003920049050636979 0.001780050206834103
372 -0.0009853804495256761 0.0016775213089952365 -0.003522759428276169
2084 -0.029508632584708226 0.002882805480317364 -0.015917272135221518
2085 -0.01501128029390691 -0.0026366488855926475 -0.023707303169885865
659 -0.007620914991412032 0.0024189150341562336 0.003673256405687755
2080 0.0020230597028481254 -0.0024307609285619514 0.0040741697815237215
1518 0.0010266605044033418 -0.004152146751001232 -0.007713117750084272
665 -0.012705302473641232 0.002457276737521464 0.019901242523065982
790 -0.019442532793425088 -0.0014565140071449436 0.003094375305969865
666 -0.022369366382366092 0.006686871612609872 -0.0037488444316283397
775 -0.0005201439164138939 0.0014576115510806773 -0.001112251552058037
786 0.0004366488912034279 0.002294382982581319 0.00431091209311734
1142 0.0033857826824631016 -0.001738425054647967 -0.008378541639915181
1140 -0.0031168485416883693 -0.032292932626756254 -0.043871346549671814
630 -0.0006662083906310086 0.0009783831395084668 0.013843981292886916
1114 0.017808242515255424 -0.004254410260106956 -0.00027890625113743424
664 0.007984662939766008 -0.016992017727200208 0.014835532798595915
624 0.005990303372519753 0.0011575754741510805 0.002824880876159196
729 -0.02367494092995487 -0.0049035169163529 -0.02002551079761326
378 0.003420832651786182 -0.019903841903172265 -0.003840018236542766
376 -0.00857922219455066 -0.02943163338392076 0.00045693347975417684
1138 0.0005818232345978424 -0.011058640008659639 0.005822039456253492
1139 0.005974636865190081 -0.001521651144870416 -0.00587154993304512
2082 -4.3472899587152986e-05 0.002560708396047807 0.00207960453611582
2088 -0.011087917010345252 -0.015594411902379961 0.020669006171147777
1141 0.001838687944687173 -0.0017718806736822285 0.0028721285097344437
1143 0.009858490992579662 -0.011524454605995172 0.02859108599065214
343 -0.002355840591484248 0.0004176720753151246 0.006972928574117108
1109 0.003131693396883004 0.0012814098294511805 -0.002280012431381038
79 0.00820429759703583 -0.004147132969284262 0.00016386274697329572
1629 -0.024297283880015282 0.004945273445227298 -0.004886951594619852
1510 0.016150376161808516 0.01115447356262582 0.021896697938508583
1728 0.005521345642692088 -0.007005897997487584 -0.010059271799827733
661 -0.01736139862366873 -0.008662848323151263 -0.009055096429969711
1696 -0.010698549599685627 -0.00839599376396622 0.002136546678487306
792 -0.01840718200965339 0.004726905468942372 -0.01612733435397401
1519 0.017993138867543678 0.015140894326771025 0.001981508122119758
662 -0.02451801840192335 0.00887475882454021 0.0014051755845579446
626 0.012028876872507331 0.009574738982556175 0.013157374504618761
741 -0.006915767255046088 0.002098053685432531 0.0006314121853676152
747 -0.010068188367883547 0.02328049451408414 0.025580499357326224
1209 0.0007289008679369401 -0.0010758911975537416 -0.0004859618258567644
1215 -0.014946524138460928 0.0024381654342143493 0.008744132456794155
1419 -0.00972741122325351 -0.03307956189515528 -0.02662147974818972
1208 0.01004061851843624 -0.0032140272062468056 0.009960070768607963
740 0.0019130131966505581 -0.00463189663196028 -0.0016027424082184212
743 -0.015564275898423137 -0.0064931837571425115 0.004938348343218792
744 -0.02533461047679635 -0.015269200803486371 0.043135098225936634
1414 0.0029672264142937468 0.0015669972852478803 -0.0012401332422758689
739 -0.0019933090256487778 0.0002727523484500156 -0.005346519398042453
745 0.0043082158627367195 0.012141866811798957 0.02313956964590237
1418 -0.0002367449200579725 0.013406657194024174 0.0002967971061276278
1416 -0.005079028446948517 0.0036352549418561947 -0.009766342302152705
746 -0.03121252117922613 -0.0011558906950326772 -4.035180061627981e-05
1421 0.03952331804119648 0.015268909194008206 -0.01564037417291241
1415 0.005136669487876022 0.00674090185559313 -0.0016792442785301077
1422 -0.01172226575773002 -0.00844651755939625 -0.012309549753586621
1946 0.013386915397336012 -0.007049783450705073 0.009774598032534615
1420 0.0172963405269017 0.00479834051298526 0.01675938974539598
1951 0.03431761148674972 0.025542448280580794 -0.01256457347868069
613 0.003573702647355105 0.0012261184521830755 0.005406365854122512
1176 -0.023215335738602228 0.010435968969434162 0.0037019774009709972
1953 0.010783470599903793 0.011350131643610319 -0.020599837953117383
1628 0.005768098558891862 0.03214551479660551 0.004828152762372865
1947 0.003460268450983133 -0.002412255646121072 -0.0028586102368969115
2229 -0.014132863245991771 0.007956734757468397 -0.004777642715581093
1622 0.007138111637403379 6.65292298863794e-05 -0.001188465868628206
1627 0.005119150947295878 -4.277115809729023e-05 0.0009786239939340664
1213 0.00916801037413968 0.0105654629490946 0.019910436159465424
980 -0.010497711228357692 0.01731675496678735 0.003921070951829093
1852 0.015703018596802586 0.015414478795408594 0.0021152349235473316
1850 -0.00814566175427511 -0.014447440802683143 -0.024390975848762608
2247 -0.00602899356320491 -0.019255395380134488 -0.04304373214169423
1823 -0.0029741477616661324 0.008832637003016914 0.004461154794369297
2141 0.01575937546460681 0.01091050095250552 0.018764046690533984
2245 -0.020389478392548024 -0.01191906419777846 0.01331643451088348
1525 -0.004291796226887343 -0.02005349027655864 0.020918131200109946
984 -0.002810814933105927 -0.006102438379704589 0.005149412262630241
599 0.023845884638873834 0.012691278306596726 0.0014419268161858935
990 0.003271891953717002 -0.0009994779992151797 -0.017523604636265115
1950 0.007259259915243043 0.012236199181329798 0.021848469448480366
141 -0.03758200701126592 -0.0019629363460061736 -0.007048244216916278
1417 0.009718154225750165 0.00034501333045805434 -0.0067218806028005946
1526 0.00974943820651185 -0.024434927270510515 -0.008771595928042554
955 0.007065575319141474 0.0013523667258403137 0.0025652792373901502
1811 0.0009009076537293369 0.0003263409584606766 0.0005919579916330805
978 0.005549325233943412 -0.015662103978638875 0.03882095524041183
499 -0.003604940938319402 -0.015084304897449044 0.038460856715591255
142 -0.005516870336928651 0.017865372265749607 -0.016570768505849195
1522 -0.0008309551333786509 0.0030050085217997657 0.0034343353135621794
1626 -0.005265961648793823 0.021426857669228708 -0.0162448674590341
1625 0.001988830402268559 -0.008108449784683586 0.0013486849636122316
618 -0.0004179000694880276 -0.024000599054668205 -0.024609936327136046
1520 0.01586389724575553 0.004165597505834021 -0.013587266802570622
1207 -0.0021844210586686305 -0.004320449909989193 0.0013728269677226368
936 -0.018596755967355695 -0.016169373524113743 -0.026603690900636613
1482 -0.02856427101474459 0.032918707325920754 -0.015254855162930701
1812 -0.0021001711275977723 -0.0042699348122778496 0.0012700269187047749
1515 0.006692035682735429 0.003745923536392668 -0.007164584717819465
504 0.05151932959118368 0.015633638216460927 -0.010646414689232102
1521 -0.011215728651762914 -0.008103412031925075 0.004263369312563344
977 -0.015898560633662684 0.014131981097256328 -0.004481936912837453
498 0.004126935708047492 -0.0009450851599036374 0.00011523150981822856
1624 0.026300743220250233 0.0032761465038160164 0.026027215464864247
138 -0.0039192076599094215 -0.004392502084136327 -0.002755488110751371
603 0.025392318736342415 0.00260689466340607 0.003910258712137031
497 0.0024830906317048138 0.0022372198473748807 -0.0012709584924840845
1621 -0.001869179081423541 0.00044176448787996595 -0.005055097431107535
136 -0.002712251891361857 -0.0063101166296226805 0.003431016314666777
975 0.0016740866745074032 -0.00037586816141257966 0.0019506699739902688
976 -0.009932253517342006 0.020673789034469366 0.021974529800373073
973 -0.0025789165043778707 -0.0021465136922864895 -0.002229960591827255
144 -0.018302156895900618 -0.007908151240841158 -0.010104166399170736
503 -0.017408177003612885 0.0020672550240042114 -0.006612934343567093
496 -0.004520088624551144 -0.0057812719420573784 0.002890151953192471
597 0.0027391607384877788 0.0004698839337189519 -0.011628068458376902
137 0.0026573412925839962 0.006774018988387163 -0.008085573720582814
447 -0.004663613118672843 -0.000657785449103582 -0.014008321933695724
981 -0.022947021064524148 -0.00944611260232783 -0.0251094398802868
1211 0.012060778863645214 -0.030163990649533644 -0.005265070773651283
957 0.002548739403913267 0.00099356339534982 -0.0034753657785992443
974 -0.004849127347529428 0.009774722385546357 0.0017645793482147728
438 0.02064823425160515 0.015341314116414446 0.004437046414564629
143 4.194719148297968e-05 -0.009561603062844643 -0.019066395760744786
617 0.000604022454798769 0.012331593756292156 -0.015199267096561261
708 -0.02100470742104325 0.0011620692041821392 0.004474320802305377
742 -0.0037300337715750758 0.006432700876061099 -0.007667196183956611
533 -0.0015880031887014158 0.002269901186783636 0.0041842665630369685
2242 0.0011607811821039984 0.007054784726104602 0.004503058103730223
1175 -0.0030003857663373637 0.004395370776938739 -0.011949401224769101
680 0.015790114643185905 -0.006131226563570375 -0.0033418974572382034
930 0.003373507106909323 -0.004901061698435886 -0.0039054634985118213
654 0.007149655224449545 0.009822407774140094 0.026872014477205785
540 0.005740447977599755 -0.011226878737203013 0.02111140569002709
1511 -0.0020743134363227647 -0.026427892459989957 0.003729274020373585
537 -0.02395150156236894 0.04239003407112711 -0.005547804796096187
935 -0.009308445765920135 0.008826664160791595 -0.01575474545121204
1042 -0.009477385930680933 -0.010608835163753683 -0.007825437591416396
536 0.021251794496829877 0.00918837707357228 0.013344769673248703
444 0.005161934306548758 -0.0013198582445174474 0.004963575505440233
139 0.010965916826303676 -0.017036521717729593 -0.0012196496765059647
934 -0.015344533685462207 -0.0004264918970099217 0.0027811344413173444
1039 -0.003827453579281557 -0.03769763780050409 0.014516808362477764
1040 -0.006173528694844387 0.012670101206301384 -0.0030511569973222666
1036 0.003858158904360836 0.0005325806130816392 -0.008588633989139751
1038 0.002162634510266787 -0.0007039294002768803 0.005873010144606289
1043 -0.007624799051167021 -0.011168627635149407 -0.027439208785590308
1037 0.007309321553839195 0.005861004444359325 0.0034338357208966754
1507 -0.006116582574920775 0.005762260760770624 -0.033704388663165594
532 -0.00019640946141723969 0.0007530935960783196 -0.004598933235685044
1041 -0.013711162979863627 0.017958527436731875 0.0038766390067776725
1044 0.008504913422096775 0.011192824134682443 0.009827772012740854
595 0.005977645408156431 -0.0037415087705899995 0.005420824553321103
962 0.006810908013195965 -0.013784804163559818 0.0015476918515094148
917 0.016808791609326655 0.004405205559672917 -0.0036119631126141586
1713 0.0039542133165416625 0.001673504818377013 -0.0013123649088153094
1719 -0.044512740065684724 0.0027679273062888453 0.032438057805722086
1505 -0.005773904143444396 -0.005583249343123714 0.005244972377403264
1509 -0.0063838792058340975 -0.0040412122816918285 0.00516161776009878
1504 -0.002422857560158613 0.0017547668179758104 0.008802654843256595
1508 -0.009358477949709532 -0.011652479308268203 0.030068968926787145
535 -0.007258259470892032 0.013389782801008172 0.006638263313782323
450 0.01327725313157219 0.011456687371241578 -0.02087962797453622
436 0.0058966094473183765 -0.01702859269494073 0.01202567904510976
433 0.0015987766175131826 -0.0024494401349594995 -0.005969673370146044
255 0.003265151432348902 -0.004175269617487753 -0.0022847698134194636
1210 0.015879533133409104 0.015618977255082529 0.019910247452728458
449 0.00799540794069946 -0.0024088649990480276 0.019714644213884823
928 -0.010379137974643553 -0.003182652932896939 -0.007906822874423647
1177 0.005159832682413387 0.0030199090614641865 0.023722137964665463
1214 0.00414873140153381 -0.0011094380925099475 0.030250647947891215
596 -0.0032816564331099914 -0.00015739844220209374 -0.0016518663046444285
1178 0.02116713536857313 0.005940797405085638 -0.025540516015559907
929 -0.005524176706420495 -0.007346030650668303 -0.00268955938036194
960 0.0197714320118841 -0.013694823073079444 -0.004190589395053536
2134 -0.0032413030280323833 -0.0011469126609231293 -0.00017568760278541338
956 0.000788980228299932 -0.004813976021609697 0.007526956384254879
502 -0.026061041417673656 -0.01128314075883075 -0.005658038287803437
598 0.013463110129026365 -0.014081086180731816 -0.006355544442697832
601 -0.0021389779123439285 -0.034826871778551254 0.02216785043051306
1485 0.0019669451556221357 0.0062697575105227065 0.002457239537785265
1478 -0.004074903900309915 -0.007531807322103478 -0.005151492160190574
1174 -0.0014282140013231611 -0.01005931939532648 0.011906734371010898
1717 -0.01450245961510972 -0.0011687648894358217 0.00448206180664868
1818 0.008357270880939578 0.005194343727131892 -0.021823282900289533
1477 0.00599892358829339 0.0067505932271314534 0.002232877501480358
442 0.006536481009860871 0.0007066194027332163 0.0007198430420568259
1173 0.006229707753238764 -0.0020691331301215627 -0.004942358024981898
1715 -0.02666611107370307 0.009025735193887182 0.0024667103449114353
1483 0.03214775814424314 -0.015422733104773927 0.014256988209472984
979 -0.0014351204763454865 0.0019264556773673273 -0.0048467878038291525
958 -0.00502467957592537 -0.009223982609337803 0.0006544643608190761
1716 0.02973730866363871 0.0008804346025741372 0.00031582746662708574
1172 -0.0018313731553253267 -0.004988013444884498 0.0016696633305339356
1711 -0.006658272089018167 0.007557959220980487 0.0035801472060535936
261 0.0015196248336106512 -0.003956967349691127 -0.00464598169977619
501 0.00895010256666086 -0.008954893876693208 0.00022592118353560744
448 0.03137331679632197 -0.0029271613813751755 0.01491250219230405
500 0.024621376692923108 0.0007968911571099112 0.03724781880269775
443 0.0062824662803378515 0.0019445666149008698 0.002332098341530603
1481 -0.025972864461937924 0.01746445997944682 -0.028012515078719696
600 0.004472517918285133 0.009106509173913318 0.003962223202552077
1479 0.0016562220362884691 0.014811595086670855 0.0006904276585467222
140 0.00874121370251889 0.00630729061624087 0.00858244201223567
1171 0.005081521001897732 -0.0012555319094087487 0.0019649564233130833
1712 5.9405746355983084e-05 0.004471143271343067 -0.004002909328730152
1718 0.01804282177792367 0.003913944323028134 -0.00842362870236295
1179 0.004298725977218011 0.005366487508703907 0.009871732873087777
1714 0.052929974933561774 0.026611057167156418 -0.010977826125203458
1480 -0.0077138957778753415 0.015348316446651411 0.021007069543463958
2138 -0.00558984021272882 0.007472660189055977 -0.011058637900397437
602 -0.009719990719817799 -0.014684729297722068 -0.024995782130111513
1113 0.0005092035155049471 0.024717530487160362 -0.010827813037272607
616 0.022644154196775148 0.014507775508813292 0.01431134715377047
1945 -0.002688278968149733 0.00024271943035418357 0.005555777457377118
931 -0.018797887240990203 0.00404530452561916 0.007917967394613052
2228 0.025941104962124976 -0.011710722373964965 0.0013050746895652728
1527 0.013701389050865686 -0.005177482155145042 -0.019768283740319352
534 -0.0016454832114264114 -0.0010032258140826316 0.0006059981474679917
963 -0.010801655562596078 -0.021604777906848976 0.02697871637421111
2224 -0.003431253102668169 0.0014285208148930742 -0.000810853213867621
437 0.000437732517484122 0.019545060891818494 0.02803381871076303
2246 0.004181376285001721 0.02311380728078632 -0.011728216486456526
2190 0.003830362578547875 -0.002675886632311536 -0.003972396987123635
2189 -0.004579741497648147 -0.006408238567362082 -0.0018853498893347093
1685 0.00024315473628183594 -0.002510344329928659 -0.0007722692234682294
635 -0.0013783279206536249 0.0097869275184636 0.007733798107865964
2067 0.006736949668722379 -0.01792020602081927 0.001721950130489182
1691 -0.012882868158669597 -0.022472408926498978 0.001120819693264893
2196 0.04664627162856527 0.018082683006316828 -0.0022922878106837086
1687 0.01388845443591616 -0.035620966766276504 -0.0399434977851299
1684 0.0016853798472099802 -0.005482407869465441 0.0008560803597954853
1692 0.0033274200602785554 -0.003975234057414723 0.006293528811247127
1689 0.010038023240938347 0.0040815447542760005 -0.010906655911921784
1686 -0.0016581676608093299 -0.0001843424460434467 -0.002553196069807975
1688 -0.011208093992161428 0.0028424547453113768 -0.021234487052175385
663 0.0031597833789034605 -0.028844255822255412 -0.010243718894366503
2192 0.025776215174898864 0.004802982888812615 0.01580907224824325
2055 -0.0007316130793886773 -0.00318656991101167 -0.002262411572455195
631 0.0124406337420672 -0.007078946756877132 -0.008083463946431065
1690 0.0016930142453997444 0.0028102776486198353 0.017896861514899744
2195 -0.030889340450947784 -0.029369418351287355 -0.013996552551668491
900 -0.03533832614786598 0.002423091957251365 -0.003300729231454291
2188 0.001223704518993109 0.006243417302825943 0.006038355453945485
2142 0.01578401621785427 -0.005799800569302473 -0.013389401719373807
633 -0.0010680094295459092 -0.00010463787048548957 -0.003240452301189533
636 -0.0046858005806873085 -0.01751360696333475 -0.023618792023811407
1869 0.023243284782291436 0.013183695242836274 -0.007122241008313319
1864 -0.0030115511203037282 -0.0018177885233317495 -0.008025901272827887
1557 -0.01640043384664208 -0.008790093134093166 0.016798490801506326
391 -0.022024067206801327 0.024944137331529795 0.01955153132537207
2194 -0.0060033371175694725 0.0015257466009331638 -0.0032575085426332358
1002 -0.0023024534789890024 -0.0032345357324780485 0.001736018121496235
1000 -0.0030483532881974704 0.004587476098612216 0.006876345385641259
607 -0.012164850820254283 -0.008844234875421065 -0.007337421684558373
389 0.0019518338703948012 0.011163347424915138 -0.004810415559459952
2191 0.003230235062283228 0.01270730146904591 -0.017899958897145022
2062 -0.0008094636404092895 0.006762751621671265 0.0036593622103664974
2193 -0.008840816851603202 -0.0017195675983966124 0.008816548966120483
723 0.0023169156535484785 0.0012791886328231172 -0.00041332394897774827
2065 0.014704733397527512 -0.017189478172732434 0.0004524159881522594
358 0.008589312373533822 -0.019189511742039415 -0.011055896603886655
359 0.01740726513559615 0.004256435766932551 0.004726371420924747
388 0.003383340284036477 0.004014392686433905 -0.002861180155675518
639 0.006716271304329024 -0.0014513130094843344 0.022628691860182914
1008 0.00783115733914942 0.002303685514108875 0.004644187076185637
1573 0.003908426121670688 0.009642231726541526 -0.01849659117678804
393 -0.011622034101757755 0.006624895731686608 -0.029666952294327417
2136 -0.004542197504689554 0.00019572018751513553 -0.001275704360899907
390 0.0053691965922455015 -0.002748931271800908 -0.004194943852711597
392 0.0013301882557033462 0.023082539435523044 0.00046058125143584074
396 0.02771200922798772 -0.003654308520337043 -0.006728212309089696
933 0.008614612735439025 0.006510621858180891 0.01762352323640538
634 -0.018048660500364317 -0.008837249253112451 0.027922543077707015
1001 0.001930162039398932 0.01022964624986379 -0.002275182702049336
434 0.005323199571212301 -0.0012174347427747663 0.004405142299999365
1006 -0.025000610218468042 0.01235670102375038 -0.010528722044400361
477 0.030370144426225487 -0.0008308847660976197 -0.023175465759615013
608 0.031378629689273706 0.018303836430444607 0.016409671351800804
1496 0.0006656960832086355 0.014123166845470318 -0.006705324889592054
35 -0.019323096088383136 0.006424903114116531 0.014046517129504256
1500 0.009809599948120926 -0.011321096868947111 0.02643265660382652
352 -0.0062643834026444205 0.0030854141602747087 -0.002742467723284996
2063 -0.004071982477359135 -0.0012282552195282842 0.0005241474494816178
2069 -9.978964744554533e-05 -0.003190835530798889 0.009648385055063298
2068 0.01060298500812347 0.016394571925761454 0.0023618261443133343
360 0.007943261896355408 0.031722006989901894 -0.011465657175885819
354 -0.0032386051380147688 -0.005853698840690739 -0.0036764326046950582
2064 -0.0014089077049472083 -0.003556628105701039 -0.0004844795458060165
882 -0.011926248001230063 0.00776663811869379 0.026220356625898576
1497 0.008073150705691977 0.0037251867067253047 -0.004727320993708515
292 -0.024679839023129032 0.0007858480467489798 -0.01254119204752363
290 0.009233633783303474 0.0057873001886246875 -0.0012022766589072547
296 0.0012953070030054118 0.009174722781248224 -0.0030385604829880355
295 0.006278194930740856 -0.007931151480216997 0.01916616396698553
289 0.0033392483356382723 -0.00017334159111112373 -0.009642275840657348
1503 0.007698504891544211 0.015486541556677056 0.025280284338981
1467 -0.01685248561333569 -0.0065150355713527895 0.023409958121841032
876 -0.0025393968245245166 0.004273592985697307 0.009501411580157458
297 0.0011067377179641734 0.006008622354406302 0.006393626940267932
293 -0.014038924923952567 0.01013654113812596 -0.014835980190171367
291 0.000402356649794889 -0.0015108242745189117 -0.0023396722016290287
2070 -0.005907508938539614 -0.009490195182998021 -0.01764979302518401
1461 0.0029383845947500717 0.0031931461295920255 0.0030514673065045583
1976 -0.012711632663468107 0.01952253558180116 -0.0009379744464850828
353 -0.0031586325140402906 0.005957402194601628 0.004061538440674545
294 -8.703693200721558e-05 -0.008793008458984994 -0.00323176603880953
356 -0.002519132185975971 -0.025601535249999727 -0.024147448897938743
1501 -0.015288797698996768 -0.0079442400105213 -0.009003229437194416
538 -0.015356900826182667 0.01224174438587027 0.005923678912432933
1866 0.002404986977669151 0.003756926775943016 -0.003148443274625675
1570 0.0028425059642092033 0.018320720013933367 -0.0024328478399438702
753 0.015842040618852356 -0.0016294971328637913 0.016453256314801577
1462 0.00046677687867070804 -0.0040978976121334824 0.010807583856871673
18 0.017335904711574642 -0.006250871741642156 -0.0034747648684386326
1394 0.012424957251853866 0.012053211296192981 -0.011921162842474983
1079 0.02240489658376863 -0.027230731235446677 -0.005250458917377324
446 0.0073678331806298035 0.009808018553658508 -2.2246414355637214e-05
1392 0.022476183788657834 0.010096134236885311 0.02365736351887041
1076 0.009569508349894599 0.003607820750514776 -0.0073429376748676825
1073 0.0004604742207570259 -0.0014158296924456184 -0.006810373097557358
282 0.0037594774760214243 0.008086360621011677 0.004186912365008728
171 -0.017984162659516266 -0.014526023085748555 0.012992045540410821
1868 -0.006404390110965215 0.012785006047753424 0.009050991364680568
2066 -0.02960111110915303 0.019674977686831074 -0.027500451383977643
637 -0.020520901023869557 0.004816723066994222 0.011179112087792977
167 -0.01189459910882384 -0.0018736196819789087 0.010655649558395045
475 0.0057382862534312426 0.00692437441787595 -0.0005707673721390001
591 0.002947505075560756 0.011905596525476094 0.01467277291018967
32 0.009593423322894815 -0.0004260805256897758 0.026893803593156962
2059 0.014481304780994235 0.0063553628827519955 0.015856439871182366
1567 -0.001998080107488619 0.002980889193545271 -0.0007038138135353241
895 -0.012462078093713776 0.016884781755100983 0.006992923108356058
1103 -0.008776661069998457 0.02183869067946092 0.03147215952654566
43 0.009390773439020023 0.007947598332218472 -0.0063840564020573275
1387 0.001075484889415945 -0.00625830092086331 0.008096704159516263
163 -0.007400298271627047 0.009851812465145406 -0.0020330582614998933
168 -0.018854736974160867 0.03221930716624226 -0.0016055001979099269
166 -0.01523779811768533 -0.011595357322686774 0.01446013115966651
1574 -0.006528813406448821 -0.012406317942543406 -0.005690441818560627
170 -0.023012100058199442 0.005291214507595088 -0.012354728516601585
164 0.007003283033119913 -0.0017212072071945874 -0.00661574983125689
169 -0.014151151079909803 -0.008685299670981679 0.013194337400269068
604 -0.002287713686291346 0.005590961704219789 -0.0029320032067096605
165 -0.0030822672372365183 0.0014464822259951117 0.00011308168693097748
725 0.015732517724445692 0.008398766942773665 0.00960582971241205
724 -0.00524440998879509 -0.001953463848252813 0.014219396703549464
726 -0.012533852104758809 0.018851459039994686 0.023034579654776562
721 -0.0005051971368531939 0.0037819163970296567 -0.003832738820163188
722 -0.0008533157394836492 -0.0006430484742260999 -0.003998517129622948
355 -0.0008548414683379854 -0.009021588963145366 -0.0025824030052825817
1390 0.023112353967792737 -0.005836154354192644 -0.00026327674097406027
1499 -0.001978687078418495 0.006971498814018743 0.00679246814227064
1572 -0.004345902696201198 -0.011302406985562247 -0.007027728232438023
1571 -0.013177786134569628 0.009048042855730591 -0.02061076838287773
288 -0.002456785911148699 0.012401049601886899 -0.010084531521367011
932 0.01434963984584208 0.01909935081786035 0.017480421326492294
2002 -0.013553880762809075 -0.019973233919630417 0.02125594287138297
1568 0.0023166662389609827 -0.006631742915575607 0.0049758489343781605
1080 0.001371230028933275 0.014520307566962787 -0.00727304483806883
897 -0.025722833114140253 -0.01304374442602545 -0.01369278851511431
880 0.0397583621348319 0.0016027295293040095 -0.0036678950763963927
445 -0.013306102989758487 0.020835356017729387 -0.02342602237439695
394 0.02722811507284328 -0.015105201724222932 0.006509338649378305
435 0.0057847529915527615 0.0009030044706713657 -0.004224712324379104
440 -0.01441293695419815 -0.007655640403107637 -0.009086123958787766
586 0.0036219535734647824 0.0034723108392081675 -0.0016744766042682358
893 -0.0047248695474119305 0.009638681471728153 0.0010553685175671813
1466 -0.001045026597957193 0.0007180372821820595 -0.0181634526753292
1074 0.004071649357375263 0.006839136294731836 0.00015156861199973874
1075 0.004917637837913157 -0.018670997955929657 -0.03246330648125463
1072 0.000664989190194501 -0.0032349671184169386 0.0015353169583324391
632 0.001941509287332998 0.002808971302207556 -0.007329441849665781
892 -0.0067100271384341 -0.0012226953194867354 0.00018698817702389675
1465 0.023819081075309226 0.009914561179547563 0.013514986293597861
1460 0.0008972062272987728 0.003001366799358049 -0.0065408536839291175
1077 0.01750272668134636 0.005743785275500878 -0.004662211569626929
896 0.02375122497862607 0.023150302700369624 -0.014323783744270707
1463 -0.03405520074676453 0.0023295990908968364 -0.031005389854773774
899 0.0013214760719645587 -0.0022121089024666834 0.01869819056581382
441 0.00537710789736973 0.043054383282793006 0.03617459615662384
894 0.00036654029162235425 0.0021326798112551604 -0.0003571528750201627
592 0.001511036328158996 -0.005947416003000986 0.01318344552784484
1459 -0.010701547783829903 0.004953153158430805 0.008726003059904598
439 -0.011478530828551324 -0.025499517100960333 0.013609215218038448
1003 -0.0077317290219932845 0.007668103785577359 0.009039273692383616
395 0.016057166190167546 -0.0022753112538007156 0.020817560163791902
728 0.0128374030282518 0.0008260007342351181 0.025731920146540542
898 0.0016999175969941215 0.007550806394289402 -0.005395192072372368
1464 0.00963784436737737 0.010680127487793933 -0.006950730302674638
727 -0.007443107036708301 -0.021928662268299724 -0.025544035069075453
587 0.0013948149562011563 -0.0008042018463234983 0.006354822646678025
287 0.0021153300955764603 -0.018371443081611042 -0.03692214445078773
238 -0.00558642095773498 0.006231214129824225 0.008256549867128328
609 0.004580883005173308 -0.006168589119327805 0.021899293905806826
1872 0.011744729628513126 0.0018128615554373227 0.013535307865563484
34 -0.00984374195862987 -0.010143179205304989 0.022174872785468088
1391 0.004608548494070226 -0.018927936395293124 0.011905076521097005
29 0.0018359441644480781 0.0032171604348323586 -0.00633639267490097
539 0.013505600418385435 0.0021051331257255007 0.018443663627576396
476 0.0011536722352140716 -0.01930120330505458 0.005929763041448225
229 -0.0006347288823491842 -0.01002245251272087 -0.01391040716778204
674 0.0008663938124059214 0.0053301868471288105 0.017362702364948482
675 -0.0275202059531702 0.012235618579225758 0.02291879159142931
673 -0.02069868784568379 0.0007005594906213265 -0.00644638554270193
669 0.0012014022514252177 -0.005832126756755449 0.010318737921845582
668 0.004916139621596961 0.009080028013702886 9.435881859643538e-05
813 1.3352567462209723e-05 0.0022395840397088315 -0.0013628363816406716
819 0.0031202049967062 0.011628474213319395 -0.0012914336115056886
667 0.0032713886514811477 -0.002956592220246608 -3.1026266519426446e-05
671 0.002763121443813047 0.020912716918468584 0.011483254463188349
670 0.027766671572511132 -0.011030764408810645 -0.0032064368052363876
672 -0.005133525904349742 -0.011069653738006602 -0.010730439166577057
1533 0.0009278554402252086 0.00770224094879213 -0.0011102238638851867
1532 0.0017842116587179668 -0.00010963758237934468 -0.007703630511746722
1536 0.007320788170831003 -0.0015737807664202917 -0.009387494491958009
1531 0.00245327826284815 -0.004147693675054307 0.0026650125598632474
306 0.00396885193346506 -0.005130133975687899 0.017577942489793524
818 0.012155123484798434 0.003967233507555846 0.014121023794121829
816 -0.011995432631472302 0.010558069126543735 -0.022104046089081907
1534 -0.009657206422602494 -0.018424653836496233 0.00679533157481716
1537 0.01281991820887842 0.019165490157921714 0.008818386671372096
387 0.013753317572467248 -0.0011973666743073678 -0.021289859900276386
1539 0.005303702657397563 -0.011173280797741218 0.003017410714146696
2185 -0.0195452131255197 0.006524822420688885 0.02869650646397305
1538 0.009566857405023768 -0.0017008595077056888 0.025923371103193055
1889 -0.005635457461005752 0.005305921639076109 0.007374515530243524
300 -0.003861727493605436 0.004988485925151017 -0.0007093544555578263
1883 0.001411583499839213 -0.006010972707115773 0.0015445428452422125
381 -0.004749378557659515 -0.007941840917297808 0.0017181272671140519
1722 -0.004334543122818318 -0.00018635208418928644 0.005279673066273601
2001 0.007829392585297358 0.005832324440684757 -0.007177600451026046
812 0.002038714616299736 0.01042435983325577 -0.001490089835747046
1886 0.010197373046283029 -0.03587670217884979 -0.006824296878179718
1882 0.005386927690932865 0.007056380777383796 -0.0017566285918133675
2113 -0.016227948746052365 -0.007650584917095333 -0.0330467371798235
384 0.021118553300870143 0.004433486259625465 -0.005498971200799577
373 0.007623079292237086 0.00496889125565897 -0.013001983566555225
1885 9.516258665260755e-05 0.00586914617558216 -0.027712733911128558
1023 0.0035166445441597452 0.010964086753030058 -0.024927785781887476
325 0.0006476200359560003 0.0014464945873918196 0.0064936237509998565
329 -0.010487978018454486 -0.01461619549224183 0.008270183962634398
995 0.003897166406153025 0.017577643132530886 -0.005175015025582223
1267 0.00917348407311587 0.011893162491053872 0.026614149320548498
369 -0.006072443264465937 0.0017955936015360394 -0.004637894289428495
1905 -0.02407686891207644 0.010481870008857554 0.004946220365897435
817 -0.022636995735086412 -0.017320166870834503 0.012333061358872513
2102 0.004566041200297348 0.002622166036778202 -0.03591339438753602
811 0.006783642546754606 -0.002786525631712628 -0.0013861023078666358
815 -0.02601494158756286 -0.01644226898039697 -0.02762239047814924
814 0.034917131420983294 0.001853795251722603 -0.00599284988389948
2098 0.003379834550843932 -0.0009355467991179687 -0.0021040787080770255
999 0.015422335921783837 -0.00899584086172719 -0.005561103681258334
788 0.004548882760260754 0.01559085454041 -0.013867530370342444
368 0.005433139987416523 0.012826594252170673 -0.005232866946569216
367 0.0011220886125746276 0.0033443112839314604 0.009079484135848455
364 0.041951395368703986 0.01406626378126055 -0.012904959238229383
972 0.022746809601385892 -0.0052139620125286786 -0.029154750434173895
361 -0.0010512392468512229 0.0021949553588858956 0.00011680771192295645
967 -0.020365114201061973 -0.022124021186788835 -0.023735386911905135
2100 0.005310482204932237 0.003958347479946681 -0.0035248831651479894
1707 0.011159874625740817 -0.01587180581181983 -0.015516577492004274
965 0.0015342457249172717 -0.006622410336639718 -0.00016057786255838357
966 0.0019180412213601315 0.004965137188559732 -0.0008105672848276157
964 0.008801274695005183 0.003748958083081471 0.0028603289753200583
365 0.0274301399723799 0.02229644299018373 0.014471589665865968
366 0.0017899136838563237 0.0012560017911406093 -0.004894683565540554
362 -0.002325928995877388 -0.0053463344472733 -0.0037362187005474464
791 -0.005173389373751735 -0.02049880105945653 -0.009794027245037465
2101 0.005728819920445633 -0.011493640043138336 0.023214860812340088
969 -0.006417368951262999 0.01933113378736205 0.01687413187816681
2099 0.006267874966614161 -0.009415525723600823 0.0002523197817974776
970 0.003766170030168464 -0.013217106201833721 -0.019614279026162647
971 0.007902570794270404 -0.023197717437951945 0.038637782318440825
2105 -0.008677934566817903 -0.00352446015749429 0.005539375371267357
1944 -0.01449639080609339 0.02332608437441947 -0.013569320364773737
1022 0.012001227456546743 -0.002380948645098864 -0.0176033024244311
789 0.006096485530717846 -0.01551010958071789 -0.005498700407274182
157 -0.0072234220362673044 -0.01510487209877838 0.00950645913279225
968 -0.010633723015427398 0.052720366846567036 0.026732044353150807
162 0.006136532595769352 -0.0009302770558670714 0.015642406766054637
155 -0.003297432438400069 0.0031403816985179976 -0.0024728995702078898
784 0.0014476487139305286 0.0013518364398716332 3.72866914691991e-06
787 -0.026903038066002496 0.04887000561906436 -0.006821082033214031
766 0.0015043358522166578 -0.0012622805912583784 8.119747037282384e-05
2103 0.019765785516226667 0.026327676135557244 0.0020549313457157727
2104 -0.005703125307372335 0.02537162331917932 -0.012677999439019176
2183 -0.00024353562592521595 0.0008905130419073484 0.03681952214274594
1706 0.0031619744576403467 -0.011878362001042994 0.007689697106145867
363 -0.0035824761790494044 -0.0028366984413070173 -0.0008269269895390801
2106 -0.020138050904593963 0.017276149337545177 0.007131427759495541
1115 0.015441365795949428 0.028757566119988733 0.03207222153844139
2115 -0.02149318725798606 0.014682105388537172 0.0072194193494263805
2180 -0.0027525915307723267 0.0015424306130693215 0.00402513170231289
1888 -0.017914229299455072 -0.021446368700377156 -0.019966051634832234
2186 -0.005985779247923363 -0.013863389833690426 -0.0019045652346309238
770 -0.001714672829544556 0.015733518518835032 -0.005549516965586453
993 0.0032975991535651827 0.002263953049172701 -0.005077136771649731
328 0.01325878262746291 -0.004266707685846006 0.004259174420996364
992 -0.008282064751668226 -0.0035773106793416717 -0.0046895916550768885
2109 -0.001195058407679397 0.005861249856734356 -0.005039157810144604
158 -0.010985866706407058 -4.576443442093142e-05 -0.010171173343124715
1887 0.011276347697943475 0.012245235472700811 -0.010816379775202414
154 0.006666110906808187 -0.010238771872693862 -0.007104885317628339
1941 -0.007402951115684097 -0.016323106103809652 0.025931360200102446
2108 -0.005573056122534549 -0.005638831055493084 -0.0016494653818733406
350 -0.015566820267328724 0.0031488899040014976 0.004989799903027331
2181 0.0023337066844738084 0.0013213490906456046 0.0012353189513156703
1262 -0.0028351942744347506 -0.002885920425907528 -0.00019036382774436798
1890 -0.00848130005387334 -0.010453897283728593 -0.03211230396651113
2179 -0.007228788686146182 0.008693828407272043 -0.0062945106209483315
1096 0.013493754595231196 -0.0051280874895347755 -0.011361985055556856
1091 0.002126181734745672 -0.0022963023410135608 -0.0017545504778587622
1884 0.006896070090581277 -0.0011690554987445242 -0.005614618503696119
370 -0.005330943396846826 0.004119692051783704 -0.005418833764819509
161 0.009315701958253646 -0.005999392595893897 -0.015144120168304435
1938 -0.0022090777820119134 -0.011853878556869037 -0.0036283933668023664
1726 0.003760069677107933 0.03164408881768695 -0.014321424161457567
1721 0.0024309549927355213 -0.010802165170923647 0.0020787337788510324
1720 0.0011518859056842223 -0.008177369529933514 -0.006547190179178875
2110 -0.001927038103124651 0.005530030355818886 0.020361333548413994
2107 -0.00024500073243263157 -0.005852218926458229 0.0017101425397543135
2111 0.024354330683370656 -0.001992285234674619 -0.010015330023027107
1724 -0.027343212460371125 -0.03818874334569924 -0.021819430084291762
1723 0.02892677991944038 0.023429112208635906 -0.013389725740699897
1120 -0.0208823138459399 0.019038884192054715 0.020643623361459675
1097 -0.02651232076531682 -0.03318730307634433 0.0019387543158033624
1094 -0.016957235766711338 -0.008021997542555658 0.0018955747097539773
1090 -0.0014084262252056533 0.001274663834913914 -0.0011318104959381126
1093 -0.0004842561922630853 -0.014731660227174767 -0.007241088199082716
1317 0.00043748090851152894 -0.0021843261877552574 0.0007306715412695662
1098 0.03314203413796576 0.004229514226306799 -0.01309836025213784
1092 -3.442022082224831e-05 0.00042862720224197485 0.0008866189825865144
1937 0.00042455144016564423 0.002491621334876208 0.0006008964351497056
1095 -0.005826488161329879 0.007027113261727101 -0.012324714887726487
159 0.005227584404070272 0.0496353663901728 0.01635715216112743
1589 0.024749707322434922 0.0067012378176940215 -0.026940444438211135
156 0.001753900592616857 0.007560969904798736 0.0004197485142777727
1903 -0.013171841759054125 0.017231396193700257 -0.0074081433728426715
452 0.004039623696314904 -0.002384422583737323 -0.0029757873998016017
1981 -8.11988676379842e-05 -0.0011664776344980864 -2.0772986032940868e-05
459 0.0020571196798072305 0.037764999704388055 -0.02070705578245777
772 -0.0006828563520384704 -0.010055479926298766 0.031039533272743954
997 0.015882801897930707 0.0288955533377341 0.00782064376094494
1904 0.0002877843032450002 0.02171811547280325 -0.002837138571707143
1709 0.017267347604079993 0.012514873509595608 0.01683000083183505
1269 0.008410752354921365 0.0014942459238919952 0.00884208133835586
1704 0.0003525319253626646 -0.0041886457384505615 -0.0024077504637773834
1708 -0.0030017984530107088 -0.009401473546712563 0.018131737230692602
1693 0.01218201713113481 -0.004076379717400755 -0.0001232733686845838
1705 0.0031317299398602914 -0.03271681672811799 0.009962490684803557
2184 -0.010105504457680083 -0.010923543235771759 0.0017216391101806108
1816 0.004649779049607927 0.013086364094245203 -0.007969490678848829
160 0.02119372923905149 -0.0029827954603962314 -0.001321782260034918
299 0.004836152656279767 -0.0047533193021989375 0.0019229726735412352
2007 -0.004571161835836486 -0.012006274429877823 -0.022487030828422253
1906 -0.004939400341095547 0.01104481136245029 0.007723779109211449
305 -0.020129643666929146 -0.006890662298149793 -0.00044516885905856383
768 0.004038768199312485 0.004977226523575897 -0.002113614333285273
773 0.007824180313756375 -0.003259116241788981 -0.005270019985694835
1901 -0.003776948184874706 -0.006144699367975869 -0.004179392911518149
1984 -0.01731486560835624 0.008759535438851674 -0.00862491964136761
1703 -0.00617126314961621 -0.00697849675498367 -0.0020824349868017464
1908 -0.015926531769775397 -0.005848648964767088 0.016733708781299216
458 -0.014888635526683514 -0.01674765605554535 -0.018995842328861756
1943 0.019128344108486923 -0.0023706102342763748 -0.013227993515288656
1702 0.003952308585676506 -0.001288696454341212 -0.006525855792986589
767 0.002563951361730363 0.0020451349621720236 0.0035250577093968974
1323 -0.018172763263743733 -0.0035440389362770995 0.02457753815204792
1907 0.013233487779470803 0.00973446070418264 0.022468414047715508
774 0.0027781572965085233 0.018207382452949023 -0.003183301255712607
453 -0.00012695565527346954 0.0010106763011905253 -0.0027814143478180073
1902 0.0004645796229402507 -0.004435510917489895 -0.002495197505884318
1900 0.007042089113553625 0.0021074310813803333 -0.0003744798472826924
374 -0.004441465370981565 0.004457135698317396 0.004469372854666018
1710 -0.006361069754586943 0.02773001056375967 -0.014583613504282668
345 -0.005560322334442645 0.0012081917673223469 0.001256828569181984
304 0.015366605233428518 -0.010923620202684649 0.026268313308468294
1698 -0.0001675864935475003 0.007466425767952034 -0.008658775949457556
2187 0.00034148312860542417 0.015929943414085854 -0.006449273225621906
349 0.0018257787562970598 0.0006534224246938256 -0.009626331274461455
375 0.008090237394205764 -0.006134957494370027 0.00820750464769327
998 0.01430196549175329 0.0038201733604162113 0.012752203319526614
1674 0.0060826393436783565 0.01829145066377022 -0.011648865440755449
385 8.053960475644625e-05 -0.010829949075324353 0.006106506447525781
380 0.00012207806573399005 -0.0038695142463584208 -0.0012456435203830835
1263 -0.0038122803758789546 0.000995205119417586 0.002910171737491692
1268 0.012294643341571135 -0.01562268339210913 0.0008655352895016399
1446 -0.0043463994441726795 -0.01887104611892914 0.017951441582110168
1590 -0.008388388251540558 -0.01791924923415272 0.0042933478442785345
1985 0.027794232187256344 0.0035624453550328946 0.003096138614848573
2182 -0.00034866815133784927 0.006349433614731845 0.008954355251563535
344 -0.006876525020748037 -0.003942196537545505 -0.005802652987406859
1697 0.03616502995904133 -0.012064201848237593 -0.012319144484697309
1018 -0.0018865821885909082 -0.0019148270805552402 0.0014148580341205657
1021 -0.0015563453677419079 0.019238747320802607 -0.014203080064761045
994 0.010777711707183847 -0.012037815904996283 -0.006056970929006599
1727 0.013044987728907624 -0.019365382101697345 -0.02061179341616496
991 -0.006661264445605585 0.004383632458715248 0.004358833106064357
752 -0.004042405676910039 0.01607170256404762 0.00031543973783498846
1725 0.009802004297190262 -0.02706839960804176 0.0014305015772408203
351 -0.0036058443681055465 -0.02760515055867519 -0.004336289558307791
1936 -0.0022735574631971996 0.006922419619126467 0.006649341757037742
1849 0.00013690330094092362 -0.015363709221085672 0.007342552747977133
1803 -0.004406969255832083 0.002256223552326344 0.0012505970768323207
677 0.0025260773960805853 -0.004258934199474428 0.002698168862970971
678 0.003187174518655978 0.0030024909735166774 -0.002787521724439997
684 0.0075618482057053585 0.009963345611204407 0.017507494449207846
1809 0.007403792984112589 -0.013076023882079298 -0.015540126215988062
585 0.022587598111209157 0.021621782794805748 -0.02941223767522259
682 -0.028832148202682806 -0.02295985873272453 0.0150564301070584
676 0.0028142157258968354 0.0013976062351912907 -0.001351068870161202
683 0.013496734224407881 -0.00019589469592164857 0.0060732596783327555
681 0.013617512837402831 0.009688487264085681 -0.0003741068934821605
1319 0.011382561425926564 -0.014020484199382824 -0.013362306114920069
1049 0.017075030927820468 0.01613019640025897 0.011344133735360295
679 0.007758808562224593 0.02400358881239054 -0.005969134537491859
692 -0.008378864179256606 0.011982740078507336 0.0019980071561725883
1820 0.0006586203916869051 -0.004505132869253099 -0.0036605297304838653
1340 -0.004693374191848942 0.0065919674437387365 0.013751595073530154
341 0.03380324970221786 0.01804966980451064 -0.011280094784935819
1322 -0.017605971921010526 0.0159980540732745 0.016599819738638354
1564 -0.030806157393433908 -0.005013167498966497 0.03962868318268854
130 -0.009826421297722146 -0.01726936932543295 -0.01083283722841036
1813 0.01113934516578826 0.040402071831700075 0.000384461120697562
340 0.012578809263682574 0.01893079790138247 0.007730234656631046
1339 -0.051158390914286665 -0.018309459524633892 -0.0034147096775779848
131 -0.011004829926840877 0.0074223582720778225 0.019559068003692313
127 0.0037179707802467306 -0.0031879331493172088 0.011222636384935952
1591 -0.0045294060837773875 -0.0154094458706234 -0.016794947826401445
105 0.013743178264010641 0.0006593284656580137 -0.0016823951987696994
1848 -0.0025902704012420712 -0.00528515518223248 -0.0026151216253816724
1948 -0.013581629232889986 0.00847883724375475 -0.010887592168689328
223 -0.04290091059265601 0.019086536696558506 0.008280560507204389
100 0.0035975519644006627 0.006372629303234824 0.0017402587342023488
916 0.012845508851391062 -0.011386503954740291 -0.01919532962576116
103 0.00040679572238971835 0.015929099809834965 0.013657930871287312
620 -0.02352817044987539 -0.005799510627289977 0.03805366707741125
104 6.705088173275536e-05 -0.0019751356212472427 -0.02951244674718519
1453 0.0023075909285090418 0.013700218972043252 0.008188747015976812
1051 0.010074824367161981 0.001980264361822858 -0.020333778639404578
1111 0.03924873191348828 -0.001291159257919869 0.008801326790263778
1771 0.03424105899165525 -0.004232873907689899 -0.005373991389851177
1826 -0.005613555565782979 0.003356550290718748 0.0020389889522405844
1586 -0.005747118435938881 0.0013963497967978094 -0.002746579471495199
1125 -0.006103769292342956 -0.019658092284829957 0.028775173537402703
260 0.0031530873908401785 -0.007617415647187726 -0.01596259183453897
101 -0.0018255313219252497 0.000726666473376053 0.002903293588311672
107 0.026020854882040065 -0.00980407538498173 -0.008588980606821159
1024 -0.01188996798542997 -0.016311865397806095 0.017658987392408655
108 0.001014852751992378 -0.013289865143036643 0.007579878183553343
218 0.0003428420005988183 -0.002021504907185348 -0.0020574119130135305
221 0.027021325133512946 -0.004521434274552355 -0.0003535879206823254
220 -0.014355470489848884 -0.009213461533306131 -0.0007599684497577556
258 -0.012143025765316881 0.00220753743700185 0.014989016612873066
1026 -0.029121172063474088 -0.0021468075504642767 0.012620306728259633
1678 -0.004210507604640675 -0.005430239452210554 0.007771806159829029
1675 0.006235033461725511 0.0018285197961733898 -0.00030821880612647717
256 0.02851862399046951 -0.0003943629807657124 -0.0017728521336402494
253 0.0017830318446550623 -0.0031270898738492274 0.0039042865235619445
257 0.00788825375631671 -0.01606555562434706 -0.024302220508821068
2236 -0.0031028714610060017 -0.0037759855712885264 0.017204319170502087
2238 0.006777416857394113 -0.0023451407369629363 0.013704558204048064
2233 0.008886593112239835 0.0032786453427588054 0.00482349081130493
2235 -0.0007589943718992433 0.0017733323224943841 -0.001220506685244006
2234 0.009361128735641619 -0.00043191860402918127 -0.00014317070973158971
2239 0.007068768097971595 0.002919518844657467 0.0195934115737538
2237 -0.01732430691149641 -0.011902214478919784 -0.022022162408296287
217 0.0005662679687065597 -0.00422609192743735 -0.006016390869838647
2241 -0.02054922981612285 -0.03939363008072548 0.0036408830276981616
222 -0.0032333371749439996 0.028326544586477424 -0.0026621401835838147
1320 0.0013864105126328136 -0.004455639637623444 0.004291238312907993
2240 -0.02148906211422707 0.012908673178560273 -0.03339681805484882
1020 -0.002778140734006879 -0.0040773261198180245 -0.008794372647756035
1611 0.019583423896143537 0.007269607891619382 -0.013036798900745975
1952 0.013903052924118572 -0.0030793023104904744 -0.03493919886502011
254 -0.002323351114183392 -0.004377925358717528 0.00010257901436254884
102 0.006282201898501354 0.001793982901975585 0.0015725461569600435
1205 -0.02443085079696004 -0.02338180918535951 0.009858365804284498
1975 0.028069260562896273 0.033994269280443086 -0.0028527665600312406
1810 -0.001577675795888383 -0.001014229514280244 0.0030759645080985767
1450 0.005583974694315136 -0.0023226526056564427 -0.0035831879249898614
1019 0.0016527009783795603 -0.0010309002996517198 -0.005351357341904073
1025 -0.0026829972450542073 0.0005095510036791556 0.00914131458829992
1609 -0.01789089234274216 0.010550775326176617 -0.012014336330776743
1318 0.008362241201038812 -0.0005739219014094353 0.0017463628196347921
224 -0.0021046995145517894 -0.023420754483287 0.011661651556006618
1854 0.020886816490146985 -0.010589494838405588 0.016223133386557485
259 0.007292987412376066 0.010962088186590897 0.0036564556425715054
1676 -0.001815634009831203 -0.000768551388665715 -0.0015956749444348815
1847 -0.0027755628477140045 -0.0006744992087458969 -0.0003167397479770478
1679 0.025073344908903637 0.014177019663527236 0.0052554699231926166
911 0.004647694585018379 0.009236459838122385 0.0019213683571588148
132 0.009530610387348827 0.011469160580360118 0.00804389520713166
2073 0.003340838899129173 0.0026110199729342076 -0.0010430618623368795
2079 0.013221702991238852 -0.010031313920698762 0.006601753316952869
62 0.00381095549331768 -0.023281397254624775 0.0045108968860618414
691 -0.019371175484936314 -0.0023793923344225315 0.0155312939857829
1821 0.0035213091553195283 0.003267130689204815 0.00025146270824174096
1592 -0.01894792996080386 -0.021383824234386686 0.02330205583459724
1334 0.0027877492887459863 0.010692269621494157 -0.0070713901568858805
1341 -0.02106109637683914 -0.013524145141506617 -0.01978402318686178
912 0.0022487574881865802 -0.0017063095092564027 0.008474786529735118
615 0.0015468299720945912 0.007496552523966564 0.005225639683156088
91 -0.0009716084257757485 0.0009871275614995797 0.004606042606911338
134 0.01924582741087439 -0.036479839340341456 -0.01828248730423917
216 0.009605358464965599 0.007010087629398407 -0.014525695213932481
1853 -0.01749042566537402 0.0026073866494328896 -0.004442451239776787
579 0.004139168173526662 -0.0022990579804825283 -0.003769195413253747
1593 0.017146804303544518 0.010638285611132883 0.0058514951813561904
128 0.004261641252659517 -0.0016654064907870984 -0.007926850356662017
133 0.016454229350718157 -0.02194610817798855 -0.011483809046234804
2078 -0.026110851260980634 -0.007903395966358537 0.0026129965204882894
621 -0.026452796559644404 0.01021579896120993 0.04557292120503238
1587 0.0013612010238649365 0.003877543100827043 0.002639130536575239
583 -0.004485096693182922 -0.0077857606534345045 0.010627313951408791
578 0.0024143029506942778 0.0017822663388525001 0.00989825258523559
584 -0.006671868420603738 -0.020931824349099258 0.0019225613040790269
1484 -0.01707812192402653 -0.008431136548924602 -0.004068129248793982
577 0.0008601427725618737 0.00020007624601188031 0.0036364251524419345
1769 0.004189109672112099 -0.0013500142365151693 -0.021021532037473985
1337 -0.01921091352476843 -0.0003090135858995231 0.000977029294324723
2072 0.00011491385516047642 0.003308572179981709 -0.0008960302036387567
129 -0.0002601895413727477 -0.002634873971287194 0.0019779950357145526
135 -0.009467516412950466 0.011662667961512892 -0.021855847395595585
93 0.0063286102622154535 0.0018667808976176024 0.0026545763343288624
99 -0.012333748535219935 -0.009805489683008331 0.0047589679456415505
581 0.012541658291744232 -0.007576685693486861 -0.030866684414395044
580 0.007940906445438023 0.0002704650423357345 -0.0052335092983539075
582 0.005030402002188786 0.034038323975404905 -0.012525863064577472
1949 -0.01388951919444881 -0.01928438886918739 -0.0044035476520610075
92 0.004056897783081346 0.0059494255377672695 -0.00408738297196041
1454 0.008167939781778169 0.00892274540175658 0.012062746522438147
210 0.00072260730962984 0.0010870880407725103 0.004550160564880534
1607 -0.01875462085296468 0.004807917530791628 0.0027847567368352167
2077 0.008938473997117766 0.0019358710511042435 -0.013414855495647264
614 -4.9476485888655454e-05 -0.005707223131657207 0.00469146917875732
106 -0.011029996705306442 0.0011546764311014229 0.01778492218429853
1112 -0.012300294594867206 0.019830669027965826 0.011311338086839807
1122 -0.016036967220855933 -0.001940905171015367 0.013690893020833143
1588 -0.006731488946256183 0.009247018382606232 0.01729276266093361
918 0.007131401065530384 -0.008562281359116571 0.007709815843425503
1610 0.021129107239934063 -0.002152368242722939 0.007033898817742773
1451 0.0001016886327108955 -0.007261070344796665 -0.01031761978129111
1680 -0.015218805228610827 -0.015468107558424576 0.005644205458453861
1456 0.027170298216206097 -0.0006078419163644827 -0.001369607986660202
619 0.008028653564432182 -0.01878823837362135 0.0009613155545255021
1121 -0.007592831345485078 -0.00180142333462988 0.03033776684620605
1123 -0.018892225782969254 -0.007191655511743768 -0.0014272723660841613
1814 0.008483457012254293 -0.006007123796602625 -0.011405596945759957
1605 -0.0006167811999338702 -0.0037241933916189653 -0.0025523398214730465
1356 -0.0364982172673617 -0.005985426853150039 0.01104591388724604
1827 0.06129906385428262 -0.016604140051505917 -0.024912820546037932
1316 -5.655707108156162e-05 0.0012664517176490518 -0.005479653112267073
2139 0.015372683702512158 0.004988169633049463 0.014775801011116176
1457 0.0026827892545988044 -0.019305328724522976 -0.02099924850484295
94 -0.007095819749215646 0.013802469628116718 0.003501536955474797
1561 0.01592801684346595 -0.015228330366383812 0.0020757286861423814
98 0.008347851428401205 0.01063053468155916 0.0072251052313037035
1851 -0.001419592593834248 0.023588105305852296 -0.007634830180413071
1124 0.0025046219917537514 0.013144532454762962 0.005761740404517627
1315 -0.002193570572303032 -0.00023431118107523457 0.0022488464257607245
1119 -6.036387196132594e-05 -0.0002572779362316517 0.0068953480008175656
1604 -0.005721403944459509 -0.002794877736078993 -0.0011417154463207876
1585 -0.00042526642608130765 0.0010304385006911988 -0.0013812446745296513
1452 -0.0013339538251287027 0.003676448389361223 0.004609834791948237
1458 0.0072010300917983725 0.019841385186930804 -0.003725400407475171
1765 -0.00809942668932316 0.0007974787113041677 -0.0015900096878018086
1815 -0.002241374706613339 0.007944511133368873 0.014085758987646755
1603 -0.004544629663012628 0.002175229211534988 0.011512443216868956
1118 -0.008811749747434178 -0.004473454284696795 0.0014227875912135334
1455 0.0012083345824650039 0.002749106200055558 0.026399251899568113
1766 -0.0015542661412302294 -0.006095078160952471 -0.0005444379041838439
1767 -0.001703316712397825 -0.007096711204728202 -0.007578838309307269
97 -0.0038962608102734372 -0.01665649596761684 -0.0025508218917511686
1606 0.01377281955669377 0.0123757352197094 7.576832194778519e-05
1117 -0.006967170043737589 -0.0010956440056441163 -0.005645654507868653
1608 -0.01827999919889127 -0.01110214676325254 -0.0020187599719320975
1768 0.03688181223733836 0.005973372947657734 0.015032056960447867
1846 0.0002422149888823553 -0.0016096253859940004 0.013157978001663262
1108 0.005124090910047556 -0.0023219190086870875 -0.0027661112516931207
1770 -0.019710783083609334 0.0015322356660206252 -0.015036385309401412
1050 0.011114349890865568 -0.004761469559502732 0.015110109185350398
1321 0.01807301923084977 -0.013192169447099023 -0.003948593769794844
219 -0.00250282514173851 0.0007290524356289933 -0.005803526295572293
1677 0.005707236054289965 0.002567936583609822 0.001132628975158223
690 0.014301526695365626 0.013198218391973255 -0.00987746769917958
1772 0.005925152702783855 0.035820211688173564 -0.008291021656678601
686 0.003866731191997098 0.00855425426724233 -0.0039921305585977245
2137 -0.016188769934704188 0.006297044416898106 0.007174585899020885
95 -0.013037408419297854 -0.005864779579695461 -0.0025026003193328113
420 0.022412396889374374 0.006733137580960335 0.001323751899305013
1825 -0.002635946076257103 -0.004770583818174622 0.02261384633679106
1423 0.010502379569589607 -0.008311889355083719 0.012047380434280639
3 -0.0034207514276882777 -0.003289188426430765 0.004465413565885704
1430 0.018655965308485324 0.0017988185113092352 -0.01229774504967587
1426 -0.005121823246088378 -0.0024307620103990843 0.005227954947445754
1264 -0.014905493307305544 -0.013918444413803344 -0.002589032187624609
1427 0.0002692086898747551 0.00950798658895349 0.007467011986750881
9 0.019691027769844646 -0.009890648543516513 0.002701212737534442
30 -0.008599702092838425 -0.0016774790424495284 -0.0007770240280096176
1683 -0.004457381284243672 0.010100613993607076 -0.006618153529615786
36 -0.0042801374033434375 -0.013270406078378363 0.023299565564806033
1389 0.0003002761327405275 -0.00730426163216298 -0.0016129005077415892
233 0.03251641829143202 0.012211046364976226 0.011188936038869913
7 0.005784168082069969 0.013606915980998793 -0.0007061403851208648
342 0.016819413346408817 -0.006305044140620659 0.019914216371573815
1424 -0.00022710295975203161 0.011841240932310782 -0.005548424565099966
1425 -0.00038686514985176974 -0.0013522605109660593 0.002209562524071269
1395 -0.00695142364208612 -0.014059671364112085 0.0022609811475094717
2 0.0013433168784407889 0.008309599806599805 -0.002781794738722797
1428 0.004604683900014343 -0.004334580511823309 0.0033226870643275844
8 0.016371104570415042 -0.017603716369478956 0.003753364302713974
2012 -0.03194710355052179 0.008010932495027078 0.010341039887490229
1429 -0.009038219542736344 -0.002854145914005775 0.02175173067145855
383 -0.017540653125980753 0.008761517538205298 -0.006585872767512046
688 -0.004496056252474193 -0.026529894330893405 0.011260414601413618
689 0.01668296552620386 0.0095826743247664 0.013645650471942723
330 0.020216397397924062 0.011215222463865995 -0.007691844644078811
196 0.009306668142748345 -0.011342004026119396 0.021916517405737284
379 0.005490075146798796 0.003985508989722149 0.0005551469515746392
1 0.002796408110250182 0.0026966302422348253 0.002097731120914064
382 -0.002328969436968327 0.027991122933963452 -0.004382839730921118
2140 -0.0078345870317156 -0.012840887971759809 -0.003416122803813624
685 0.006210823362478731 0.001230253195497529 -0.004144416477211458
28 0.0016536300756851065 -0.002996112073088658 -0.0036204875568200804
1266 -0.0027732202374264082 0.00622531873465599 0.027772831797762496
386 0.016038656582642828 0.013561150931691817 -0.0032909666680207917
42 0.024761115131061766 0.012251549696332489 -0.0042317712399082665
687 0.0016998062110323098 -0.001973175082027892 0.000541786142566538
1249 -0.0074157063629165885 0.0086721838445004 0.01628756086723452
693 -0.0162876238616097 0.005662646178244095 0.021335056429925274
33 -0.003751075960341032 -0.0038624703760342786 0.0027533220783700356
1972 0.005525707847342845 -0.01002639393392233 0.0006343963908310498
874 -0.0015180757385594415 -0.0005871016270485188 0.0009381601976442208
1244 -0.0018535849288270102 0.001983321307864001 -0.003985539154711154
284 0.00938307777021034 0.03307409983519833 -0.01608324203733599
1921 0.006063277089636288 0.008082681393859604 0.005061804339276155
827 0.011417264915393726 0.04060514942932949 0.004326262676930554
1431 0.004360165317402495 0.00817375383095182 0.0010642910738190132
1805 -0.016141608668075267 0.010889561095329967 -0.0069270938069936824
227 0.0014932395073084495 -0.005532198471085952 -0.001793038381745554
2112 -0.028137626789929586 0.016396867830222123 0.022991582288100238
228 -0.0020828948307474323 -0.0048815952756103885 -0.00782604061221753
234 0.020427530348407726 -0.005813882697853277 -0.015910759817306403
230 -0.007883113048472588 -0.01824929441469413 0.01636052285595522
226 -0.005609111567857552 -0.005290489757471977 0.003873193047803301
339 0.0020590057853042696 -0.0218993031521101 -0.013301104540037923
1546 0.011092072913993068 -0.005145671236821423 -0.030785534858058974
334 -0.0007862512208071549 -0.0007222398872670571 0.0024655116734052063
2015 0.024093631017411375 0.007677375802129934 -0.0034535259447808775
336 -0.0036100030489890746 -0.002440474207529294 -0.008473286330655713
2013 0.023177919870329303 0.014977399040024318 0.008575003780052657
2008 0.0045437901556098755 -0.00563330592133386 -0.0006506409497303457
6 -0.02593365963070006 0.01631432299124362 0.0023622327914504804
41 -0.010869049405220434 0.0010374930830441284 -1.275566458183366e-05
2010 -0.0014855623043153474 0.006036242257894499 0.00033894806628410656
2009 -0.004274995905479748 0.0011856577319482612 0.004482053807676006
2014 0.003924272709971465 0.00046114351682170984 0.005339299694220168
2016 -0.0046626102083459665 0.02809267914665391 -0.017593331013059373
1393 -0.011557248287081892 0.010843340614484208 0.006555431020024693
1548 -0.007187708326755289 0.02604834680153702 -0.009110919868648428
337 -0.003342122859648338 0.0037909379099388533 0.017073443480663652
1547 0.014944429410434246 0.0001747922969942898 0.016273443277270355
232 -0.018240431272563633 -0.006279218971410023 -0.020014980861668974
1541 0.0039044285519773897 0.004478820836944053 6.825904686649385e-05
338 -0.02198447195111253 -0.01185359838328901 -0.0020262266385920862
1542 0.0015884174956972174 0.008105826815707744 -0.0025166737617000885
1545 -0.0006957192148790447 -0.01574286807532069 -0.03171076239668299
1447 0.014491614399622321 -0.01958428872556232 -0.03206493118134476
1977 0.0034413452119631182 -0.029994216654084707 -0.013231533112521465
1442 0.0001545495580671946 0.007249883485194707 0.007932568372055903
231 -0.008813001417642938 0.0002459359787976392 0.009589802813525568
1445 0.024352039236602757 0.0070902647911909485 0.01179167686825333
1540 -0.014003338244413922 0.003788865325438739 0.0029235422794674083
1544 0.002594992084751564 0.01981873097443399 0.0011534558537361907
1441 -0.00015968765393198941 -0.00385919157291545 0.0019842054741933683
1448 -0.0045349932841219276 0.0077278834265458495 -0.03182775028014408
1444 0.02619950608452943 0.001988506133022719 -0.01194294452421877
335 -0.004152201979332266 -0.002261756301608887 0.0007934589057624781
2011 0.006136351363835833 -0.01359837887116517 -0.005234826566446893
1808 0.018425807389027965 0.010704096145932995 -0.02143969502213627
1801 -0.008844154574482918 0.0032124066216945293 0.006416504153596086
2006 0.012608708003697965 0.03226457062453716 -0.022274234196309632
638 -0.0009350569498131952 -0.0007106076740006921 -0.015062759243065757
204 -0.0020912110623129976 0.013818090998700442 -0.01878358240516891
203 -0.004930775027909644 -0.002630216485078506 0.014219839671744164
4 -0.003649597294339347 0.03143211076595326 0.0054021476852302965
206 0.018097773374302347 0.011915199396188514 -0.0004085357646346534
875 -0.0036994133512908323 0.000629803040998056 -0.004290665551086168
38 0.0003259191995151454 0.0008814701116343356 0.003689017997018812
1251 0.011915950246114807 -0.016649978341165394 0.0030390392382702463
190 -0.005297604590837036 -0.006138753856421989 0.00024844071030639053
40 -0.011346906063717794 -0.01620068098519946 -0.031507612804391044
199 -0.0019396097291288297 -0.010310902060295373 -0.005467313865428304
225 0.005472036161022853 -0.011566282977089308 0.016778790041241814
31 -0.03643877008117024 0.015974289991283745 0.025958065828189048
45 -0.0027249220222716228 0.02208547691256929 -0.019022757265497823
881 0.015093907070333196 -0.013050770438159458 0.001265068237626445
191 0.0019397043899302565 0.004044761630206065 -0.0010972226695716888
192 0.001953018472784371 -0.006016554000783436 0.004195599840703892
198 0.0005568856092663047 0.0026701847844631255 -0.013621694398547777
419 -0.02337559869355599 0.026044435812764617 -0.0070443090271336325
422 0.013598199791343645 -0.014979981523667816 -0.010867759859129385
416 -0.0002041164208670087 0.005384061789623396 -0.00353170071851025
201 -0.00034533243972191514 -0.0019886628127574416 -0.000554289914133764
417 0.0060276112254534385 0.00012928824086858056 -0.0005423705149766024
423 -0.015395289007859818 -0.005005828932156831 -0.0340423477097614
207 -0.021406630743595986 -0.006465593149951237 -0.0002059618816678156
421 -0.00463307436680331 -0.006968525772385644 -0.01152128275367627
200 -0.008279469500019492 -0.0021950660900561464 -0.0014157710986615834
205 0.015391610500374539 -0.00540192744138119 -0.009396078996576152
197 0.012878087442002206 -0.0003462058272452279 -0.004662603380745495
415 0.00532407800285575 0.0011095809583105687 0.005660292622745702
418 -0.016859518412817073 -0.0013996833375162815 -0.007056858467922834
39 -0.0015434954828977478 -0.004964768208823885 0.000249179417011428
1245 -0.0010475406502817699 -0.004194584357551324 -0.0028161534300897443
202 0.005440004684651641 0.00044817919662091323 -0.028784698460975762
37 0.0029064751538438057 -0.0018768109117466365 0.00027105386127071474
332 0.002991487841372169 0.01317955508233162 0.001200561476360989
195 0.01357191573871751 0.02535909044688595 -0.0526725008187183
194 -0.00024033297790980966 0.02626950145967673 0.011486075522650145
1067 -0.013756806348859493 0.0008841614160884502 0.0193143761854398
1068 -0.021270224583815008 0.046716055489836185 -0.008408385494426218
1910 0.0008479073397826241 0.0015988434913127851 0.013009926777719127
1802 -0.002921749756322426 -0.0006227637854937627 -0.0034913321148419482
879 -0.039072023540998334 -0.0056517661689127795 0.010243551568881673
1070 -0.009416145126297341 0.017928496710486696 0.010231281552763045
1911 -0.0005893983037773363 -0.0031866254072768245 0.0034672563906060264
186 -0.013450422843395453 -0.0011381069467582504 0.004146137585309366
182 0.0032151177328781574 0.0036003982778851228 -0.005054969873195897
1388 0.00926689319083276 -0.003118904866670843 0.0024092117503150073
1071 0.030201825519119676 -0.009520966590298286 -0.012766403090392606
1917 -0.010701384050914729 -0.032555564413378785 0.010052017829195027
878 -0.013875200114450028 -0.003985717549377402 0.009843280471602059
1913 0.01205669865099788 0.00472637547019379 0.03236844398673918
327 0.0021373865744078414 -0.0016057333955773643 0.0015505161011449275
189 -0.011934818886510587 0.002852492741933352 -0.0065262960648662695
1806 -0.022006349202999424 -0.025426696141374525 -0.016861961223607093
1443 -0.004078342672447373 3.199961411227513e-05 -0.001370722283709728
1940 0.002250696959616437 -0.01910153279262799 0.03938298073957526
1065 -0.0039610446438903355 -0.005862968023664645 0.00014513012867038068
824 0.011633644975760008 -0.023482981770491636 -0.006175038626579793
44 0.0027625912440567375 -0.011947073628688725 0.007774094390728925
1063 -0.0012221890161261278 0.00979663384860308 0.0035960219902605862
1449 0.0034972868565909224 0.010203027684058764 0.013247792622633257
187 0.014671619539901934 0.024102376419997934 0.0073512715487630735
1909 -2.3321576373888503e-05 0.0022017739682193504 -0.009983460288543357
1916 0.003136445447585508 0.03316643460603767 -0.02266316424885202
1912 0.010260729417864418 -0.018531879395226353 -0.0220232913009333
326 -0.0033197203052416605 0.004168563893408621 0.00018211706678256722
184 0.019890598319894683 0.012773348652395716 0.01208978298803728
1066 -0.001090722272843336 -0.039418660342050785 -0.0027508135601633293
185 -0.015750054572169294 -0.00042484148539006296 0.0005194787002490299
1069 -0.00496711085001584 0.006937812434775546 -0.0228621806537338
1064 0.005166091066111718 0.0007381262322955184 0.0053346687765327815
181 7.114193368600585e-05 -0.005083389617614078 0.003595021589430958
823 -0.020642279804116728 -0.002213912153606922 0.005667590422956959
820 0.0007580682190479245 0.0017777563740734657 0.005005379337542312
822 -0.005443953444815358 0.002644981352427751 0.0027012002821832403
828 -0.0548968626888587 0.012270050637565148 0.021786865468527112
825 -0.008191573284217596 0.011279490117878706 0.01014965010943321
183 0.0025710805243326766 -0.004735175409800563 -0.007760913957735568
1914 -0.0001098656712033171 0.008828217652181383 0.01930556818485077
1773 0.015668229164953317 0.003246963331852618 -0.006746771506788061
188 0.003425605263715886 -0.011951789597438894 -0.029013281665148393
1543 0.020240108828047977 -0.00786867485730098 -0.013971891110918549
826 0.007733574855203815 0.0007588310398431226 -0.003621614274727939
1915 -0.009786092488341933 -0.013767300426703395 0.018428908121287016
333 0.021440467122094343 0.018698318285075153 0.009780240466065826
821 -0.007813221700783426 0.0012884365337094159 0.009353787715443377
1939 0.010409943691434794 0.006000100030008604 0.020596703993680493
877 -0.002213753254464204 0.0016838128732681458 0.02900868388523013
96 0.022468217776271445 0.010160104097619823 0.019487314605569968
1261 0.006296485719971573 -0.018329145917084094 -0.003147705170115872
1807 0.024035792672051963 0.013083597374537714 -0.02909922313159427
1942 -0.009725902349625603 0.022375771281136592 -0.010068404412792114
331 0.005660709267339385 -0.0022833224715873832 -0.019870406093647236
2155 -0.010472680635625224 0.007718033258068645 0.017352315238503953
2135 -0.0010816382168277626 0.0011659880594273788 0.003544791071551264
1804 -0.0158743916329602 -0.012842860692620178 0.00469758042395272

Bonds

1 5 119 120
2 3 119 124
3 3 119 125
4 4 120 126
5 5 146 147
6 3 146 151
7 3 146 152
8 5 1955 1956
9 3 1955 1960
10 3 1955 1961
11 4 1956 1962
12 4 1893 1899
13 2 1738 1739
14 1 1738 1741
15 1 1738 1742
16 1 1738 1743
17 5 20 21
18 3 20 25
19 3 20 26
20 5 1739 1740
21 3 1739 1744
22 3 1739 1745
23 4 147 153
24 4 1740 1746
25 2 1954 1955
26 1 1954 1957
27 1 1954 1958
28 1 1954 1959
29 2 145 146
30 1 145 148
31 1 145 149
32 1 145 150
33 2 19 20
34 1 19 22
35 1 19 23
36 1 19 24
37 2 64 65
38 1 64 67
39 1 64 68
40 1 64 69
41 5 1784 1785
42 3 1784 1789
43 3 1784 1790
44 4 1083 1089
45 2 901 902
46 1 901 904
47 1 901 905
48 1 901 906
49 4 2091 2097
50 4 1992 1998
51 5 1991 1992
52 3 1991 1996
53 3 1991 1997
54 2 1990 1991
55 1 1990 1993
56 1 1990 1994
57 1 1990 1995
58 5 902 903
59 3 902 907
60 3 902 908
61 2 1081 1082
62 1 1081 1084
63 1 1081 1085
64 1 1081 1086
65 4 1011 1017
66 5 1082 1083
67 3 1082 1087
68 3 1082 1088
69 5 2036 2037
70 3 2036 2041
71 3 2036 2042
72 2 946 947
73 1 946 949
74 1 946 950
75 1 946 951
76 5 2207 2208
77 3 2207 2212
78 3 2207 2213
79 5 1379 1380
80 3 1379 1384
81 3 1379 1385
82 4 2208 2214
83 4 1785 1791
84 2 1612 1613
85 1 1612 1615
86 1 1612 1616
87 1 1612 1617
88 4 1029 1035
89 2 478 479
90 1 478 481
91 1 478 482
92 1 478 483
93 4 21 27
94 2 46 47
95 1 46 49
96 1 46 50
97 1 46 51
98 4 1371 1377
99 5 1370 1371
100 3 1370 1375
101 3 1370 1376
102 2 1369 1370
103 1 1369 1372
104 1 1369 1373
105 1 1369 1374
106 4 2037 2043
107 2 1225 1226
108 1 1225 1228
109 1 1225 1229
110 1 1225 1230
111 4 480 486
112 2 118 119
113 1 118 121
114 1 118 122
115 1 118 123
116 5 1226 1227
117 3 1226 1231
118 3 1226 1232
119 5 1028 1029
120 3 1028 1033
121 3 1028 1034
122 5 479 480
123 3 479 484
124 3 479 485
125 4 1380 1386
126 2 1009 1010
127 1 1009 1012
128 1 1009 1013
129 1 1009 1014
130 4 1227 1233
131 2 316 317
132 1 316 319
133 1 316 320
134 1 316 321
135 2 2035 2036
136 1 2035 2038
137 1 2035 2039
138 1 2035 2040
139 5 47 48
140 3 47 52
141 3 47 53
142 5 1892 1893
143 3 1892 1897
144 3 1892 1898
145 5 1010 1011
146 3 1010 1015
147 3 1010 1016
148 4 903 909
149 2 1126 1127
150 1 1126 1129
151 1 1126 1130
152 1 1126 1131
153 2 1783 1784
154 1 1783 1786
155 1 1783 1787
156 1 1783 1788
157 4 2145 2151
158 2 2143 2144
159 1 2143 2146
160 1 2143 2147
161 1 2143 2148
162 5 2144 2145
163 3 2144 2149
164 3 2144 2150
165 2 748 749
166 1 748 751
167 1 748 752
168 1 748 753
169 2 2206 2207
170 1 2206 2209
171 1 2206 2210
172 1 2206 2211
173 2 1648 1649
174 1 1648 1651
175 1 1648 1652
176 1 1648 1653
177 4 1650 1656
178 4 426 432
179 5 1649 1650
180 3 1649 1654
181 3 1649 1655
182 5 1964 1965
183 3 1964 1969
184 3 1964 1970
185 2 1963 1964
186 1 1963 1966
187 1 1963 1967
188 1 1963 1968
189 4 1362 1368
190 2 424 425
191 1 424 427
192 1 424 428
193 1 424 429
194 5 1361 1362
195 3 1361 1366
196 3 1361 1367
197 2 910 911
198 1 910 913
199 1 910 914
200 1 910 915
201 2 1378 1379
202 1 1378 1381
203 1 1378 1382
204 1 1378 1383
205 4 1965 1971
206 4 921 927
207 2 1189 1190
208 1 1189 1192
209 1 1189 1193
210 1 1189 1194
211 5 425 426
212 3 425 430
213 3 425 431
214 2 1360 1361
215 1 1360 1363
216 1 1360 1364
217 1 1360 1365
218 2 307 308
219 1 307 310
220 1 307 311
221 1 307 312
222 2 1657 1658
223 1 1657 1660
224 1 1657 1661
225 1 1657 1662
226 5 2045 2046
227 3 2045 2050
228 3 2045 2051
229 5 1217 1218
230 3 1217 1222
231 3 1217 1223
232 5 1658 1659
233 3 1658 1663
234 3 1658 1664
235 2 2044 2045
236 1 2044 2047
237 1 2044 2048
238 1 2044 2049
239 5 713 714
240 3 713 718
241 3 713 719
242 4 705 711
243 4 1218 1224
244 4 2046 2052
245 2 1216 1217
246 1 1216 1219
247 1 1216 1220
248 1 1216 1221
249 5 704 705
250 3 704 709
251 3 704 710
252 4 1659 1665
253 2 703 704
254 1 703 706
255 1 703 707
256 1 703 708
257 5 1613 1614
258 3 1613 1618
259 3 1613 1619
260 2 1594 1595
261 1 1594 1597
262 1 1594 1598
263 1 1594 1599
264 5 983 984
265 3 983 988
266 3 983 989
267 5 884 885
268 3 884 889
269 3 884 890
270 4 1524 1530
271 2 568 569
272 1 568 571
273 1 568 572
274 1 568 573
275 4 885 891
276 4 1056 1062
277 5 1055 1056
278 3 1055 1060
279 3 1055 1061
280 2 1054 1055
281 1 1054 1057
282 1 1054 1058
283 1 1054 1059
284 4 1614 1620
285 4 570 576
286 4 1191 1197
287 4 2127 2133
288 5 569 570
289 3 569 574
290 3 569 575
291 2 1027 1028
292 1 1027 1030
293 1 1027 1031
294 1 1027 1032
295 5 2126 2127
296 3 2126 2131
297 3 2126 2132
298 5 1190 1191
299 3 1190 1195
300 3 1190 1196
301 2 883 884
302 1 883 886
303 1 883 887
304 1 883 888
305 2 712 713
306 1 712 715
307 1 712 716
308 1 712 717
309 5 1595 1596
310 3 1595 1600
311 3 1595 1601
312 2 919 920
313 1 919 922
314 1 919 923
315 1 919 924
316 2 649 650
317 1 649 652
318 1 649 653
319 1 649 654
320 5 920 921
321 3 920 925
322 3 920 926
323 4 714 720
324 4 1596 1602
325 4 651 657
326 5 1523 1524
327 3 1523 1528
328 3 1523 1529
329 5 650 651
330 3 650 655
331 3 650 656
332 4 273 279
333 4 840 846
334 5 272 273
335 3 272 277
336 3 272 278
337 2 2125 2126
338 1 2125 2128
339 1 2125 2129
340 1 2125 2130
341 2 271 272
342 1 271 274
343 1 271 275
344 1 271 276
345 5 839 840
346 3 839 844
347 3 839 845
348 2 838 839
349 1 838 841
350 1 838 842
351 1 838 843
352 5 2162 2163
353 3 2162 2167
354 3 2162 2168
355 2 469 470
356 1 469 472
357 1 469 473
358 1 469 474
359 2 1099 1100
360 1 1099 1102
361 1 1099 1103
362 1 1099 1104
363 2 2161 2162
364 1 2161 2164
365 1 2161 2165
366 1 2161 2166
367 2 235 236
368 1 235 238
369 1 235 239
370 1 235 240
371 4 1569 1575
372 2 1153 1154
373 1 1153 1156
374 1 1153 1157
375 1 1153 1158
376 4 1155 1161
377 4 1254 1260
378 5 1154 1155
379 3 1154 1159
380 3 1154 1160
381 2 541 542
382 1 541 544
383 1 541 545
384 1 541 546
385 4 237 243
386 4 2163 2169
387 4 795 801
388 5 794 795
389 3 794 799
390 3 794 800
391 2 793 794
392 1 793 796
393 1 793 797
394 1 793 798
395 5 1487 1488
396 3 1487 1492
397 3 1487 1493
398 4 1488 1494
399 2 1486 1487
400 1 1486 1489
401 1 1486 1490
402 1 1486 1491
403 5 236 237
404 3 236 241
405 3 236 242
406 4 471 477
407 5 65 66
408 3 65 70
409 3 65 71
410 4 318 324
411 2 1468 1469
412 1 1468 1471
413 1 1468 1472
414 1 1468 1473
415 5 605 606
416 3 605 610
417 3 605 611
418 5 317 318
419 3 317 322
420 3 317 323
421 5 1100 1101
422 3 1100 1105
423 3 1100 1106
424 5 470 471
425 3 470 475
426 3 470 476
427 2 1162 1163
428 1 1162 1165
429 1 1162 1166
430 1 1162 1167
431 5 11 12
432 3 11 16
433 3 11 17
434 4 543 549
435 4 1164 1170
436 2 10 11
437 1 10 13
438 1 10 14
439 1 10 15
440 5 1163 1164
441 3 1163 1168
442 3 1163 1169
443 5 542 543
444 3 542 547
445 3 542 548
446 5 281 282
447 3 281 286
448 3 281 287
449 4 1101 1107
450 5 2054 2055
451 3 2054 2059
452 3 2054 2060
453 2 2215 2216
454 1 2215 2218
455 1 2215 2219
456 1 2215 2220
457 2 2053 2054
458 1 2053 2056
459 1 2053 2057
460 1 2053 2058
461 4 759 765
462 2 1999 2000
463 1 1999 2002
464 1 1999 2003
465 1 1999 2004
466 2 757 758
467 1 757 760
468 1 757 761
469 1 757 762
470 5 758 759
471 3 758 763
472 3 758 764
473 5 1550 1551
474 3 1550 1555
475 3 1550 1556
476 4 1551 1557
477 2 1549 1550
478 1 1549 1552
479 1 1549 1553
480 1 1549 1554
481 2 982 983
482 1 982 985
483 1 982 986
484 1 982 987
485 2 1495 1496
486 1 1495 1498
487 1 1495 1499
488 1 1495 1500
489 4 12 18
490 4 48 54
491 4 516 522
492 4 1182 1188
493 5 1181 1182
494 3 1181 1186
495 3 1181 1187
496 5 515 516
497 3 515 520
498 3 515 521
499 2 514 515
500 1 514 517
501 1 514 518
502 1 514 519
503 2 1576 1577
504 1 1576 1579
505 1 1576 1580
506 1 1576 1581
507 5 2090 2091
508 3 2090 2095
509 3 2090 2096
510 4 1407 1413
511 2 451 452
512 1 451 454
513 1 451 455
514 1 451 456
515 4 1326 1332
516 5 1280 1281
517 3 1280 1285
518 3 1280 1286
519 2 262 263
520 1 262 265
521 1 262 266
522 1 262 267
523 5 938 939
524 3 938 943
525 3 938 944
526 2 1279 1280
527 1 1279 1282
528 1 1279 1283
529 1 1279 1284
530 2 2089 2090
531 1 2089 2092
532 1 2089 2093
533 1 2089 2094
534 2 1180 1181
535 1 1180 1183
536 1 1180 1184
537 1 1180 1185
538 4 1839 1845
539 2 298 299
540 1 298 301
541 1 298 302
542 1 298 303
543 2 1639 1640
544 1 1639 1642
545 1 1639 1643
546 1 1639 1644
547 5 1640 1641
548 3 1640 1645
549 3 1640 1646
550 4 750 756
551 2 505 506
552 1 505 508
553 1 505 509
554 1 505 510
555 2 1837 1838
556 1 1837 1840
557 1 1837 1841
558 1 1837 1842
559 5 1838 1839
560 3 1838 1843
561 3 1838 1844
562 2 460 461
563 1 460 463
564 1 460 464
565 1 460 465
566 4 939 945
567 4 264 270
568 2 937 938
569 1 937 940
570 1 937 941
571 1 937 942
572 2 1270 1271
573 1 1270 1273
574 1 1270 1274
575 1 1270 1275
576 4 1128 1134
577 4 1272 1278
578 5 2117 2118
579 3 2117 2122
580 3 2117 2123
581 5 1325 1326
582 3 1325 1330
583 3 1325 1331
584 2 1324 1325
585 1 1324 1327
586 1 1324 1328
587 1 1324 1329
588 2 2116 2117
589 1 2116 2119
590 1 2116 2120
591 1 2116 2121
592 5 1271 1272
593 3 1271 1276
594 3 1271 1277
595 4 2118 2124
596 2 1243 1244
597 1 1243 1246
598 1 1243 1247
599 1 1243 1248
600 5 1127 1128
601 3 1127 1132
602 3 1127 1133
603 4 1578 1584
604 4 489 495
605 2 1306 1307
606 1 1306 1309
607 1 1306 1310
608 1 1306 1311
609 5 1577 1578
610 3 1577 1582
611 3 1577 1583
612 2 1288 1289
613 1 1288 1291
614 1 1288 1292
615 1 1288 1293
616 5 263 264
617 3 263 268
618 3 263 269
619 2 1666 1667
620 1 1666 1669
621 1 1666 1670
622 1 1666 1671
623 5 1406 1407
624 3 1406 1411
625 3 1406 1412
626 2 487 488
627 1 487 490
628 1 487 491
629 1 487 492
630 5 1289 1290
631 3 1289 1294
632 3 1289 1295
633 2 523 524
634 1 523 526
635 1 523 527
636 1 523 528
637 4 507 513
638 4 1641 1647
639 5 506 507
640 3 506 511
641 3 506 512
642 5 524 525
643 3 524 529
644 3 524 530
645 4 1929 1935
646 5 488 489
647 3 488 493
648 3 488 494
649 4 525 531
650 4 1668 1674
651 5 1667 1668
652 3 1667 1672
653 3 1667 1673
654 4 1290 1296
655 2 1792 1793
656 1 1792 1795
657 1 1792 1796
658 1 1792 1797
659 4 1281 1287
660 4 462 468
661 4 696 702
662 2 694 695
663 1 694 697
664 1 694 698
665 1 694 699
666 5 695 696
667 3 695 700
668 3 695 701
669 5 56 57
670 3 56 61
671 3 56 62
672 4 1200 1206
673 4 57 63
674 5 1757 1758
675 3 1757 1762
676 3 1757 1763
677 2 55 56
678 1 55 58
679 1 55 59
680 1 55 60
681 5 1199 1200
682 3 1199 1204
683 3 1199 1205
684 2 865 866
685 1 865 868
686 1 865 869
687 1 865 870
688 4 408 414
689 4 1398 1404
690 4 1344 1350
691 5 407 408
692 3 407 412
693 3 407 413
694 5 1352 1353
695 3 1352 1357
696 3 1352 1358
697 2 406 407
698 1 406 409
699 1 406 410
700 1 406 411
701 2 1045 1046
702 1 1045 1048
703 1 1045 1049
704 1 1045 1050
705 4 1758 1764
706 2 2170 2171
707 1 2170 2173
708 1 2170 2174
709 1 2170 2175
710 5 2171 2172
711 3 2171 2176
712 3 2171 2177
713 4 732 738
714 5 731 732
715 3 731 736
716 3 731 737
717 2 730 731
718 1 730 733
719 1 730 734
720 1 730 735
721 4 1875 1881
722 4 2172 2178
723 2 847 848
724 1 847 850
725 1 847 851
726 1 847 852
727 5 848 849
728 3 848 853
729 3 848 854
730 4 1560 1566
731 4 849 855
732 5 866 867
733 3 866 871
734 3 866 872
735 5 1559 1560
736 3 1559 1564
737 3 1559 1565
738 4 1335 1341
739 2 1333 1334
740 1 1333 1336
741 1 1333 1337
742 1 1333 1338
743 2 1873 1874
744 1 1873 1876
745 1 1873 1877
746 1 1873 1878
747 2 1756 1757
748 1 1756 1759
749 1 1756 1760
750 1 1756 1761
751 5 1397 1398
752 3 1397 1402
753 3 1397 1403
754 4 642 648
755 4 1353 1359
756 2 1432 1433
757 1 1432 1435
758 1 1432 1436
759 1 1432 1437
760 2 640 641
761 1 640 643
762 1 640 644
763 1 640 645
764 4 1047 1053
765 5 1433 1434
766 3 1433 1438
767 3 1433 1439
768 4 1434 1440
769 5 641 642
770 3 641 646
771 3 641 647
772 2 1351 1352
773 1 1351 1354
774 1 1351 1355
775 1 1351 1356
776 2 1396 1397
777 1 1396 1399
778 1 1396 1400
779 1 1396 1401
780 2 1342 1343
781 1 1342 1345
782 1 1342 1346
783 1 1342 1347
784 4 1794 1800
785 2 208 209
786 1 208 211
787 1 208 212
788 1 208 213
789 5 461 462
790 3 461 466
791 3 461 467
792 5 1343 1344
793 3 1343 1348
794 3 1343 1349
795 4 867 873
796 2 2071 2072
797 1 2071 2074
798 1 2071 2075
799 1 2071 2076
800 4 1776 1782
801 5 209 210
802 3 209 214
803 3 209 215
804 2 1819 1820
805 1 1819 1822
806 1 1819 1823
807 1 1819 1824
808 4 309 315
809 5 308 309
810 3 308 313
811 3 308 314
812 5 1793 1794
813 3 1793 1798
814 3 1793 1799
815 2 1198 1199
816 1 1198 1201
817 1 1198 1202
818 1 1198 1203
819 5 1046 1047
820 3 1046 1051
821 3 1046 1052
822 2 1558 1559
823 1 1558 1561
824 1 1558 1562
825 1 1558 1563
826 5 1874 1875
827 3 1874 1879
828 3 1874 1880
829 5 245 246
830 3 245 250
831 3 245 251
832 2 244 245
833 1 244 247
834 1 244 248
835 1 244 249
836 4 1299 1305
837 4 1857 1863
838 2 1855 1856
839 1 1855 1858
840 1 1855 1859
841 1 1855 1860
842 4 1974 1980
843 5 2153 2154
844 3 2153 2158
845 3 2153 2159
846 4 246 252
847 5 1928 1929
848 3 1928 1933
849 3 1928 1934
850 2 1927 1928
851 1 1927 1930
852 1 1927 1931
853 1 1927 1932
854 5 2018 2019
855 3 2018 2023
856 3 2018 2024
857 5 1298 1299
858 3 1298 1303
859 3 1298 1304
860 2 856 857
861 1 856 859
862 1 856 860
863 1 856 861
864 2 1297 1298
865 1 1297 1300
866 1 1297 1301
867 1 1297 1302
868 5 1856 1857
869 3 1856 1861
870 3 1856 1862
871 5 2216 2217
872 3 2216 2221
873 3 2216 2222
874 5 1631 1632
875 3 1631 1636
876 3 1631 1637
877 2 280 281
878 1 280 283
879 1 280 284
880 1 280 285
881 2 82 83
882 1 82 85
883 1 82 86
884 1 82 87
885 4 606 612
886 5 803 804
887 3 803 808
888 3 803 809
889 2 802 803
890 1 802 805
891 1 802 806
892 1 802 807
893 4 84 90
894 4 804 810
895 5 173 174
896 3 173 178
897 3 173 179
898 4 174 180
899 2 172 173
900 1 172 175
901 1 172 176
902 1 172 177
903 5 83 84
904 3 83 88
905 3 83 89
906 4 1236 1242
907 4 66 72
908 2 1252 1253
909 1 1252 1255
910 1 1252 1256
911 1 1252 1257
912 5 1253 1254
913 3 1253 1258
914 3 1253 1259
915 2 2197 2198
916 1 2197 2200
917 1 2197 2201
918 1 2197 2202
919 2 1234 1235
920 1 1234 1237
921 1 1234 1238
922 1 1234 1239
923 5 1973 1974
924 3 1973 1978
925 3 1973 1979
926 2 1774 1775
927 1 1774 1777
928 1 1774 1778
929 1 1774 1779
930 5 857 858
931 3 857 862
932 3 857 863
933 5 1235 1236
934 3 1235 1240
935 3 1235 1241
936 2 1729 1730
937 1 1729 1732
938 1 1729 1733
939 1 1729 1734
940 2 1918 1919
941 1 1918 1921
942 1 1918 1922
943 1 1918 1923
944 5 1775 1776
945 3 1775 1780
946 3 1775 1781
947 2 109 110
948 1 109 112
949 1 109 113
950 1 109 114
951 5 110 111
952 3 110 115
953 3 110 116
954 2 2017 2018
955 1 2017 2020
956 1 2017 2021
957 1 2017 2022
958 4 1731 1737
959 4 1920 1926
960 4 552 558
961 5 1919 1920
962 3 1919 1924
963 3 1919 1925
964 4 1308 1314
965 2 550 551
966 1 550 553
967 1 550 554
968 1 550 555
969 5 1730 1731
970 3 1730 1735
971 3 1730 1736
972 5 1307 1308
973 3 1307 1312
974 3 1307 1313
975 4 111 117
976 5 551 552
977 3 551 556
978 3 551 557
979 4 1632 1638
980 4 2019 2025
981 4 2217 2223
982 4 858 864
983 4 2028 2034
984 2 1405 1406
985 1 1405 1408
986 1 1405 1409
987 1 1405 1410
988 5 2027 2028
989 3 2027 2032
990 3 2027 2033
991 5 2000 2001
992 3 2000 2005
993 3 2000 2006
994 4 2199 2205
995 4 1470 1476
996 5 1469 1470
997 3 1469 1474
998 3 1469 1475
999 2 2152 2153
1000 1 2152 2155
1001 1 2152 2156
1002 1 2152 2157
1003 2 2026 2027
1004 1 2026 2029
1005 1 2026 2030
1006 1 2026 2031
1007 2 1630 1631
1008 1 1630 1633
1009 1 1630 1634
1010 1 1630 1635
1011 5 2198 2199
1012 3 2198 2203
1013 3 2198 2204
1014 4 2154 2160
1015 5 749 750
1016 3 749 754
1017 3 749 755
1018 2 1144 1145
1019 1 1144 1147
1020 1 1144 1148
1021 1 1144 1149
1022 5 560 561
1023 3 560 565
1024 3 560 566
1025 5 1145 1146
1026 3 1145 1150
1027 3 1145 1151
1028 2 559 560
1029 1 559 562
1030 1 559 563
1031 1 559 564
1032 5 2225 2226
1033 3 2225 2230
1034 3 2225 2231
1035 4 2226 2232
1036 4 777 783
1037 4 588 594
1038 4 561 567
1039 4 1146 1152
1040 5 1982 1983
1041 3 1982 1987
1042 3 1982 1988
1043 5 830 831
1044 3 830 835
1045 3 830 836
1046 4 948 954
1047 5 785 786
1048 3 785 790
1049 3 785 791
1050 5 1514 1515
1051 3 1514 1519
1052 3 1514 1520
1053 4 1623 1629
1054 2 1513 1514
1055 1 1513 1516
1056 1 1513 1517
1057 1 1513 1518
1058 2 658 659
1059 1 658 661
1060 1 658 662
1061 1 658 663
1062 5 2081 2082
1063 3 2081 2086
1064 3 2081 2087
1065 4 831 837
1066 4 1983 1989
1067 5 398 399
1068 3 398 403
1069 3 398 404
1070 4 399 405
1071 2 397 398
1072 1 397 400
1073 1 397 401
1074 1 397 402
1075 4 1695 1701
1076 5 1694 1695
1077 3 1694 1699
1078 3 1694 1700
1079 2 622 623
1080 1 622 625
1081 1 622 626
1082 1 622 627
1083 2 1891 1892
1084 1 1891 1894
1085 1 1891 1895
1086 1 1891 1896
1087 2 829 830
1088 1 829 832
1089 1 829 833
1090 1 829 834
1091 4 1506 1512
1092 5 1865 1866
1093 3 1865 1870
1094 3 1865 1871
1095 5 623 624
1096 3 623 628
1097 3 623 629
1098 5 776 777
1099 3 776 781
1100 3 776 782
1101 5 947 948
1102 3 947 952
1103 3 947 953
1104 4 1110 1116
1105 4 1749 1755
1106 5 1748 1749
1107 3 1748 1753
1108 3 1748 1754
1109 4 1830 1836
1110 4 1137 1143
1111 2 1828 1829
1112 1 1828 1831
1113 1 1828 1832
1114 1 1828 1833
1115 5 2243 2244
1116 3 2243 2248
1117 3 2243 2249
1118 5 74 75
1119 3 74 79
1120 3 74 80
1121 4 75 81
1122 4 2244 2250
1123 2 1747 1748
1124 1 1747 1750
1125 1 1747 1751
1126 1 1747 1752
1127 2 73 74
1128 1 73 76
1129 1 73 77
1130 1 73 78
1131 5 1829 1830
1132 3 1829 1834
1133 3 1829 1835
1134 2 1135 1136
1135 1 1135 1138
1136 1 1135 1139
1137 1 1135 1140
1138 4 660 666
1139 5 371 372
1140 3 371 376
1141 3 371 377
1142 5 1136 1137
1143 3 1136 1141
1144 3 1136 1142
1145 4 372 378
1146 5 659 660
1147 3 659 664
1148 3 659 665
1149 2 2080 2081
1150 1 2080 2083
1151 1 2080 2084
1152 1 2080 2085
1153 2 775 776
1154 1 775 778
1155 1 775 779
1156 1 775 780
1157 4 786 792
1158 4 624 630
1159 4 2082 2088
1160 2 343 344
1161 1 343 346
1162 1 343 347
1163 1 343 348
1164 5 1109 1110
1165 3 1109 1114
1166 3 1109 1115
1167 4 741 747
1168 4 1209 1215
1169 5 1208 1209
1170 3 1208 1213
1171 3 1208 1214
1172 5 740 741
1173 3 740 745
1174 3 740 746
1175 2 1414 1415
1176 1 1414 1417
1177 1 1414 1418
1178 1 1414 1419
1179 2 739 740
1180 1 739 742
1181 1 739 743
1182 1 739 744
1183 4 1416 1422
1184 5 1415 1416
1185 3 1415 1420
1186 3 1415 1421
1187 5 1946 1947
1188 3 1946 1951
1189 3 1946 1952
1190 2 613 614
1191 1 613 616
1192 1 613 617
1193 1 613 618
1194 4 1947 1953
1195 5 1622 1623
1196 3 1622 1627
1197 3 1622 1628
1198 4 984 990
1199 2 955 956
1200 1 955 958
1201 1 955 959
1202 1 955 960
1203 5 1811 1812
1204 3 1811 1816
1205 3 1811 1817
1206 2 1522 1523
1207 1 1522 1525
1208 1 1522 1526
1209 1 1522 1527
1210 2 1207 1208
1211 1 1207 1210
1212 1 1207 1211
1213 1 1207 1212
1214 4 1812 1818
1215 4 1515 1521
1216 4 498 504
1217 4 138 144
1218 5 497 498
1219 3 497 502
1220 3 497 503
1221 2 1621 1622
1222 1 1621 1624
1223 1 1621 1625
1224 1 1621 1626
1225 2 136 137
1226 1 136 139
1227 1 136 140
1228 1 136 141
1229 4 975 981
1230 2 973 974
1231 1 973 976
1232 1 973 977
1233 1 973 978
1234 2 496 497
1235 1 496 499
1236 1 496 500
1237 1 496 501
1238 4 597 603
1239 5 137 138
1240 3 137 142
1241 3 137 143
1242 4 957 963
1243 5 974 975
1244 3 974 979
1245 3 974 980
1246 5 533 534
1247 3 533 538
1248 3 533 539
1249 2 2242 2243
1250 1 2242 2245
1251 1 2242 2246
1252 1 2242 2247
1253 4 930 936
1254 4 444 450
1255 2 1036 1037
1256 1 1036 1039
1257 1 1036 1040
1258 1 1036 1041
1259 4 1038 1044
1260 5 1037 1038
1261 3 1037 1042
1262 3 1037 1043
1263 2 532 533
1264 1 532 535
1265 1 532 536
1266 1 532 537
1267 2 595 596
1268 1 595 598
1269 1 595 599
1270 1 595 600
1271 4 1713 1719
1272 5 1505 1506
1273 3 1505 1510
1274 3 1505 1511
1275 2 1504 1505
1276 1 1504 1507
1277 1 1504 1508
1278 1 1504 1509
1279 2 433 434
1280 1 433 436
1281 1 433 437
1282 1 433 438
1283 4 255 261
1284 2 928 929
1285 1 928 931
1286 1 928 932
1287 1 928 933
1288 5 596 597
1289 3 596 601
1290 3 596 602
1291 5 929 930
1292 3 929 934
1293 3 929 935
1294 2 2134 2135
1295 1 2134 2137
1296 1 2134 2138
1297 1 2134 2139
1298 5 956 957
1299 3 956 961
1300 3 956 962
1301 5 1478 1479
1302 3 1478 1483
1303 3 1478 1484
1304 2 1477 1478
1305 1 1477 1480
1306 1 1477 1481
1307 1 1477 1482
1308 2 442 443
1309 1 442 445
1310 1 442 446
1311 1 442 447
1312 4 1173 1179
1313 5 1172 1173
1314 3 1172 1177
1315 3 1172 1178
1316 2 1711 1712
1317 1 1711 1714
1318 1 1711 1715
1319 1 1711 1716
1320 5 443 444
1321 3 443 448
1322 3 443 449
1323 4 1479 1485
1324 2 1171 1172
1325 1 1171 1174
1326 1 1171 1175
1327 1 1171 1176
1328 5 1712 1713
1329 3 1712 1717
1330 3 1712 1718
1331 2 1945 1946
1332 1 1945 1948
1333 1 1945 1949
1334 1 1945 1950
1335 4 534 540
1336 2 2224 2225
1337 1 2224 2227
1338 1 2224 2228
1339 1 2224 2229
1340 4 2190 2196
1341 5 2189 2190
1342 3 2189 2194
1343 3 2189 2195
1344 5 1685 1686
1345 3 1685 1690
1346 3 1685 1691
1347 2 1684 1685
1348 1 1684 1687
1349 1 1684 1688
1350 1 1684 1689
1351 4 1686 1692
1352 4 2055 2061
1353 2 631 632
1354 1 631 634
1355 1 631 635
1356 1 631 636
1357 2 2188 2189
1358 1 2188 2191
1359 1 2188 2192
1360 1 2188 2193
1361 4 633 639
1362 2 1864 1865
1363 1 1864 1867
1364 1 1864 1868
1365 1 1864 1869
1366 4 1002 1008
1367 2 1000 1001
1368 1 1000 1003
1369 1 1000 1004
1370 1 1000 1005
1371 5 389 390
1372 3 389 394
1373 3 389 395
1374 2 2062 2063
1375 1 2062 2065
1376 1 2062 2066
1377 1 2062 2067
1378 4 723 729
1379 2 388 389
1380 1 388 391
1381 1 388 392
1382 1 388 393
1383 4 2136 2142
1384 4 390 396
1385 5 1001 1002
1386 3 1001 1006
1387 3 1001 1007
1388 5 434 435
1389 3 434 439
1390 3 434 440
1391 5 1496 1497
1392 3 1496 1501
1393 3 1496 1502
1394 2 352 353
1395 1 352 355
1396 1 352 356
1397 1 352 357
1398 5 2063 2064
1399 3 2063 2068
1400 3 2063 2069
1401 4 354 360
1402 4 2064 2070
1403 4 1497 1503
1404 5 290 291
1405 3 290 295
1406 3 290 296
1407 2 289 290
1408 1 289 292
1409 1 289 293
1410 1 289 294
1411 4 876 882
1412 4 291 297
1413 4 1461 1467
1414 5 353 354
1415 3 353 358
1416 3 353 359
1417 4 1866 1872
1418 5 1073 1074
1419 3 1073 1078
1420 3 1073 1079
1421 4 282 288
1422 2 1567 1568
1423 1 1567 1570
1424 1 1567 1571
1425 1 1567 1572
1426 2 1387 1388
1427 1 1387 1390
1428 1 1387 1391
1429 1 1387 1392
1430 2 163 164
1431 1 163 166
1432 1 163 167
1433 1 163 168
1434 5 164 165
1435 3 164 169
1436 3 164 170
1437 2 604 605
1438 1 604 607
1439 1 604 608
1440 1 604 609
1441 4 165 171
1442 2 721 722
1443 1 721 724
1444 1 721 725
1445 1 721 726
1446 5 722 723
1447 3 722 727
1448 3 722 728
1449 5 1568 1569
1450 3 1568 1573
1451 3 1568 1574
1452 4 435 441
1453 2 586 587
1454 1 586 589
1455 1 586 590
1456 1 586 591
1457 5 893 894
1458 3 893 898
1459 3 893 899
1460 4 1074 1080
1461 2 1072 1073
1462 1 1072 1075
1463 1 1072 1076
1464 1 1072 1077
1465 5 632 633
1466 3 632 637
1467 3 632 638
1468 2 892 893
1469 1 892 895
1470 1 892 896
1471 1 892 897
1472 5 1460 1461
1473 3 1460 1465
1474 3 1460 1466
1475 4 894 900
1476 2 1459 1460
1477 1 1459 1462
1478 1 1459 1463
1479 1 1459 1464
1480 5 587 588
1481 3 587 592
1482 3 587 593
1483 5 29 30
1484 3 29 34
1485 3 29 35
1486 4 669 675
1487 5 668 669
1488 3 668 673
1489 3 668 674
1490 4 813 819
1491 2 667 668
1492 1 667 670
1493 1 667 671
1494 1 667 672
1495 4 1533 1539
1496 5 1532 1533
1497 3 1532 1537
1498 3 1532 1538
1499 2 1531 1532
1500 1 1531 1534
1501 1 1531 1535
1502 1 1531 1536
1503 4 300 306
1504 5 1883 1884
1505 3 1883 1888
1506 3 1883 1889
1507 4 381 387
1508 4 1722 1728
1509 4 2001 2007
1510 5 812 813
1511 3 812 817
1512 3 812 818
1513 2 1882 1883
1514 1 1882 1885
1515 1 1882 1886
1516 1 1882 1887
1517 2 325 326
1518 1 325 328
1519 1 325 329
1520 1 325 330
1521 2 811 812
1522 1 811 814
1523 1 811 815
1524 1 811 816
1525 2 2098 2099
1526 1 2098 2101
1527 1 2098 2102
1528 1 2098 2103
1529 2 361 362
1530 1 361 364
1531 1 361 365
1532 1 361 366
1533 4 2100 2106
1534 5 965 966
1535 3 965 970
1536 3 965 971
1537 4 966 972
1538 2 964 965
1539 1 964 967
1540 1 964 968
1541 1 964 969
1542 5 362 363
1543 3 362 367
1544 3 362 368
1545 5 2099 2100
1546 3 2099 2104
1547 3 2099 2105
1548 5 155 156
1549 3 155 160
1550 3 155 161
1551 2 784 785
1552 1 784 787
1553 1 784 788
1554 1 784 789
1555 2 766 767
1556 1 766 769
1557 1 766 770
1558 1 766 771
1559 4 363 369
1560 5 2180 2181
1561 3 2180 2185
1562 3 2180 2186
1563 4 993 999
1564 5 992 993
1565 3 992 997
1566 3 992 998
1567 4 2109 2115
1568 2 154 155
1569 1 154 157
1570 1 154 158
1571 1 154 159
1572 5 2108 2109
1573 3 2108 2113
1574 3 2108 2114
1575 4 2181 2187
1576 5 1262 1263
1577 3 1262 1267
1578 3 1262 1268
1579 2 2179 2180
1580 1 2179 2182
1581 1 2179 2183
1582 1 2179 2184
1583 5 1091 1092
1584 3 1091 1096
1585 3 1091 1097
1586 4 1884 1890
1587 2 370 371
1588 1 370 373
1589 1 370 374
1590 1 370 375
1591 4 1938 1944
1592 5 1721 1722
1593 3 1721 1726
1594 3 1721 1727
1595 2 1720 1721
1596 1 1720 1723
1597 1 1720 1724
1598 1 1720 1725
1599 2 2107 2108
1600 1 2107 2110
1601 1 2107 2111
1602 1 2107 2112
1603 2 1090 1091
1604 1 1090 1093
1605 1 1090 1094
1606 1 1090 1095
1607 4 1317 1323
1608 4 1092 1098
1609 5 1937 1938
1610 3 1937 1942
1611 3 1937 1943
1612 4 156 162
1613 5 452 453
1614 3 452 457
1615 3 452 458
1616 2 1981 1982
1617 1 1981 1984
1618 1 1981 1985
1619 1 1981 1986
1620 4 1704 1710
1621 2 1693 1694
1622 1 1693 1696
1623 1 1693 1697
1624 1 1693 1698
1625 5 299 300
1626 3 299 304
1627 3 299 305
1628 4 768 774
1629 5 1901 1902
1630 3 1901 1906
1631 3 1901 1907
1632 5 1703 1704
1633 3 1703 1708
1634 3 1703 1709
1635 2 1702 1703
1636 1 1702 1705
1637 1 1702 1706
1638 1 1702 1707
1639 5 767 768
1640 3 767 772
1641 3 767 773
1642 4 453 459
1643 4 1902 1908
1644 2 1900 1901
1645 1 1900 1903
1646 1 1900 1904
1647 1 1900 1905
1648 4 345 351
1649 5 380 381
1650 3 380 385
1651 3 380 386
1652 4 1263 1269
1653 5 344 345
1654 3 344 349
1655 3 344 350
1656 2 1018 1019
1657 1 1018 1021
1658 1 1018 1022
1659 1 1018 1023
1660 2 991 992
1661 1 991 994
1662 1 991 995
1663 1 991 996
1664 2 1936 1937
1665 1 1936 1939
1666 1 1936 1940
1667 1 1936 1941
1668 4 1803 1809
1669 5 677 678
1670 3 677 682
1671 3 677 683
1672 4 678 684
1673 2 676 677
1674 1 676 679
1675 1 676 680
1676 1 676 681
1677 5 1820 1821
1678 3 1820 1825
1679 3 1820 1826
1680 2 127 128
1681 1 127 130
1682 1 127 131
1683 1 127 132
1684 4 1848 1854
1685 2 100 101
1686 1 100 103
1687 1 100 104
1688 1 100 105
1689 5 1586 1587
1690 3 1586 1591
1691 3 1586 1592
1692 5 101 102
1693 3 101 106
1694 3 101 107
1695 5 218 219
1696 3 218 223
1697 3 218 224
1698 2 1675 1676
1699 1 1675 1678
1700 1 1675 1679
1701 1 1675 1680
1702 2 253 254
1703 1 253 256
1704 1 253 257
1705 1 253 258
1706 2 2233 2234
1707 1 2233 2236
1708 1 2233 2237
1709 1 2233 2238
1710 4 2235 2241
1711 5 2234 2235
1712 3 2234 2239
1713 3 2234 2240
1714 2 217 218
1715 1 217 220
1716 1 217 221
1717 1 217 222
1718 4 1020 1026
1719 5 254 255
1720 3 254 259
1721 3 254 260
1722 4 102 108
1723 2 1810 1811
1724 1 1810 1813
1725 1 1810 1814
1726 1 1810 1815
1727 2 1450 1451
1728 1 1450 1453
1729 1 1450 1454
1730 1 1450 1455
1731 5 1019 1020
1732 3 1019 1024
1733 3 1019 1025
1734 5 1676 1677
1735 3 1676 1681
1736 3 1676 1682
1737 5 1847 1848
1738 3 1847 1852
1739 3 1847 1853
1740 5 911 912
1741 3 911 916
1742 3 911 917
1743 4 2073 2079
1744 4 1821 1827
1745 5 1334 1335
1746 3 1334 1339
1747 3 1334 1340
1748 4 912 918
1749 4 615 621
1750 2 91 92
1751 1 91 94
1752 1 91 95
1753 1 91 96
1754 4 579 585
1755 5 128 129
1756 3 128 133
1757 3 128 134
1758 4 1587 1593
1759 5 578 579
1760 3 578 583
1761 3 578 584
1762 2 577 578
1763 1 577 580
1764 1 577 581
1765 1 577 582
1766 5 2072 2073
1767 3 2072 2077
1768 3 2072 2078
1769 4 129 135
1770 4 93 99
1771 5 92 93
1772 3 92 97
1773 3 92 98
1774 4 210 216
1775 5 614 615
1776 3 614 619
1777 3 614 620
1778 5 1451 1452
1779 3 1451 1456
1780 3 1451 1457
1781 4 1605 1611
1782 5 1316 1317
1783 3 1316 1321
1784 3 1316 1322
1785 2 1315 1316
1786 1 1315 1318
1787 1 1315 1319
1788 1 1315 1320
1789 4 1119 1125
1790 5 1604 1605
1791 3 1604 1609
1792 3 1604 1610
1793 2 1585 1586
1794 1 1585 1588
1795 1 1585 1589
1796 1 1585 1590
1797 4 1452 1458
1798 2 1765 1766
1799 1 1765 1768
1800 1 1765 1769
1801 1 1765 1770
1802 2 1603 1604
1803 1 1603 1606
1804 1 1603 1607
1805 1 1603 1608
1806 5 1118 1119
1807 3 1118 1123
1808 3 1118 1124
1809 5 1766 1767
1810 3 1766 1771
1811 3 1766 1772
1812 4 1767 1773
1813 2 1117 1118
1814 1 1117 1120
1815 1 1117 1121
1816 1 1117 1122
1817 2 1846 1847
1818 1 1846 1849
1819 1 1846 1850
1820 1 1846 1851
1821 2 1108 1109
1822 1 1108 1111
1823 1 1108 1112
1824 1 1108 1113
1825 4 219 225
1826 4 1677 1683
1827 5 686 687
1828 3 686 691
1829 3 686 692
1830 2 1423 1424
1831 1 1423 1426
1832 1 1423 1427
1833 1 1423 1428
1834 4 3 9
1835 4 30 36
1836 4 1389 1395
1837 5 1424 1425
1838 3 1424 1429
1839 3 1424 1430
1840 4 1425 1431
1841 5 2 3
1842 3 2 7
1843 3 2 8
1844 2 379 380
1845 1 379 382
1846 1 379 383
1847 1 379 384
1848 2 1 2
1849 1 1 4
1850 1 1 5
1851 1 1 6
1852 2 685 686
1853 1 685 688
1854 1 685 689
1855 1 685 690
1856 2 28 29
1857 1 28 31
1858 1 28 32
1859 1 28 33
1860 4 687 693
1861 2 1972 1973
1862 1 1972 1975
1863 1 1972 1976
1864 1 1972 1977
1865 2 874 875
1866 1 874 877
1867 1 874 878
1868 1 874 879
1869 5 1244 1245
1870 3 1244 1249
1871 3 1244 1250
1872 5 227 228
1873 3 227 232
1874 3 227 233
1875 4 228 234
1876 2 226 227
1877 1 226 229
1878 1 226 230
1879 1 226 231
1880 2 334 335
1881 1 334 337
1882 1 334 338
1883 1 334 339
1884 4 336 342
1885 2 2008 2009
1886 1 2008 2011
1887 1 2008 2012
1888 1 2008 2013
1889 4 2010 2016
1890 5 2009 2010
1891 3 2009 2014
1892 3 2009 2015
1893 5 1541 1542
1894 3 1541 1546
1895 3 1541 1547
1896 4 1542 1548
1897 5 1442 1443
1898 3 1442 1447
1899 3 1442 1448
1900 2 1540 1541
1901 1 1540 1543
1902 1 1540 1544
1903 1 1540 1545
1904 2 1441 1442
1905 1 1441 1444
1906 1 1441 1445
1907 1 1441 1446
1908 5 335 336
1909 3 335 340
1910 3 335 341
1911 2 1801 1802
1912 1 1801 1804
1913 1 1801 1805
1914 1 1801 1806
1915 5 875 876
1916 3 875 880
1917 3 875 881
1918 5 38 39
1919 3 38 43
1920 3 38 44
1921 2 190 191
1922 1 190 193
1923 1 190 194
1924 1 190 195
1925 2 199 200
1926 1 199 202
1927 1 199 203
1928 1 199 204
1929 5 191 192
1930 3 191 196
1931 3 191 197
1932 4 192 198
1933 5 416 417
1934 3 416 421
1935 3 416 422
1936 4 201 207
1937 4 417 423
1938 5 200 201
1939 3 200 205
1940 3 200 206
1941 2 415 416
1942 1 415 418
1943 1 415 419
1944 1 415 420
1945 4 39 45
1946 4 1245 1251
1947 2 37 38
1948 1 37 40
1949 1 37 41
1950 1 37 42
1951 5 1910 1911
1952 3 1910 1915
1953 3 1910 1916
1954 5 1802 1803
1955 3 1802 1807
1956 3 1802 1808
1957 4 1911 1917
1958 5 182 183
1959 3 182 187
1960 3 182 188
1961 5 1388 1389
1962 3 1388 1393
1963 3 1388 1394
1964 4 327 333
1965 4 1443 1449
1966 4 1065 1071
1967 2 1063 1064
1968 1 1063 1066
1969 1 1063 1067
1970 1 1063 1068
1971 2 1909 1910
1972 1 1909 1912
1973 1 1909 1913
1974 1 1909 1914
1975 5 326 327
1976 3 326 331
1977 3 326 332
1978 5 1064 1065
1979 3 1064 1069
1980 3 1064 1070
1981 2 181 182
1982 1 181 184
1983 1 181 185
1984 1 181 186
1985 2 820 821
1986 1 820 823
1987 1 820 824
1988 1 820 825
1989 4 822 828
1990 4 183 189
1991 5 821 822
1992 3 821 826
1993 3 821 827
1994 2 1261 1262
1995 1 1261 1264
1996 1 1261 1265
1997 1 1261 1266
1998 5 2135 2136
1999 3 2135 2140
2000 3 2135 2141

Angles

1 5 118 119 120
2 4 118 119 124
3 4 118 119 125
4 7 120 119 124
5 7 120 119 125
6 6 124 119 125
7 3 119 120 126
8 5 145 146 147
9 4 145 146 151
10 4 145 146 152
11 7 147 146 151
12 7 147 146 152
13 6 151 146 152
14 5 1954 1955 1956
15 4 1954 1955 1960
16 4 1954 1955 1961
17 7 1956 1955 1960
18 7 1956 1955 1961
19 6 1960 1955 1961
20 3 1955 1956 1962
21 3 1892 1893 1899
22 2 1739 1738 1741
23 2 1739 1738 1742
24 2 1739 1738 1743
25 1 1741 1738 1742
26 1 1741 1738 1743
27 1 1742 1738 1743
28 5 19 20 21
29 4 19 20 25
30 4 19 20 26
31 7 21 20 25
32 7 21 20 26
33 6 25 20 26
34 5 1738 1739 1740
35 4 1738 1739 1744
36 4 1738 1739 1745
37 7 1740 1739 1744
38 7 1740 1739 1745
39 6 1744 1739 1745
40 3 146 147 153
41 3 1739 1740 1746
42 2 1955 1954 1957
43 2 1955 1954 1958
44 2 1955 1954 1959
45 1 1957 1954 1958
46 1 1957 1954 1959
47 1 1958 1954 1959
48 2 146 145 148
49 2 146 145 149
50 2 146 145 150
51 1 148 145 149
52 1 148 145 150
53 1 149 145 150
54 2 20 19 22
55 2 20 19 23
56 2 20 19 24
57 1 22 19 23
58 1 22 19 24
59 1 23 19 24
60 2 65 64 67
61 2 65 64 68
62 2 65 64 69
63 1 67 64 68
64 1 67 64 69
65 1 68 64 69
66 5 1783 1784 1785
67 4 1783 1784 1789
68 4 1783 1784 1790
69 7 1785 1784 1789
70 7 1785 1784 1790
71 6 1789 1784 1790
72 3 1082 1083 1089
73 2 902 901 904
74 2 902 901 905
75 2 902 901 906
76 1 904 901 905
77 1 904 901 906
78 1 905 901 906
79 3 2090 2091 2097
80 3 1991 1992 1998
81 5 1990 1991 1992
82 4 1990 1991 1996
83 4 1990 1991 1997
84 7 1992 1991 1996
85 7 1992 1991 1997
86 6 1996 1991 1997
87 2 1991 1990 1993
88 2 1991 1990 1994
89 2 1991 1990 1995
90 1 1993 1990 1994
91 1 1993 1990 1995
92 1 1994 1990 1995
93 5 901 902 903
94 4 901 902 907
95 4 901 902 908
96 7 903 902 907
97 7 903 902 908
98 6 907 902 908
99 2 1082 1081 1084
100 2 1082 1081 1085
101 2 1082 1081 1086
102 1 1084 1081 1085
103 1 1084 1081 1086
104 1 1085 1081 1086
105 3 1010 1011 1017
106 5 1081 1082 1083
107 4 1081 1082 1087
108 4 1081 1082 1088
109 7 1083 1082 1087
110 7 1083 1082 1088
111 6 1087 1082 1088
112 5 2035 2036 2037
113 4 2035 2036 2041
114 4 2035 2036 2042
115 7 2037 2036 2041
116 7 2037 2036 2042
117 6 2041 2036 2042
118 2 947 946 949
119 2 947 946 950
120 2 947 946 951
121 1 949 946 950
122 1 949 946 951
123 1 950 946 951
124 5 2206 2207 2208
125 4 2206 2207 2212
126 4 2206 2207 2213
127 7 2208 2207 2212
128 7 2208 2207 2213
129 6 2212 2207 2213
130 5 1378 1379 1380
131 4 1378 1379 1384
132 4 1378 1379 1385
133 7 1380 1379 1384
134 7 1380 1379 1385
135 6 1384 1379 1385
136 3 2207 2208 2214
137 3 1784 1785 1791
138 2 1613 1612 1615
139 2 1613 1612 1616
140 2 1613 1612 1617
141 1 1615 1612 1616
142 1 1615 1612 1617
143 1 1616 1612 1617
144 3 1028 1029 1035
145 2 479 478 481
146 2 479 478 482
147 2 479 478 483
148 1 481 478 482
149 1 481 478 483
150 1 482 478 483
151 3 20 21 27
152 2 47 46 49
153 2 47 46 50
154 2 47 46 51
155 1 49 46 50
156 1 49 46 51
157 1 50 46 51
158 3 1370 1371 1377
159 5 1369 1370 1371
160 4 1369 1370 1375
161 4 1369 1370 1376
162 7 1371 1370 1375
163 7 1371 1370 1376
164 6 1375 1370 1376
165 2 1370 1369 1372
166 2 1370 1369 1373
167 2 1370 1369 1374
168 1 1372 1369 1373
169 1 1372 1369 1374
170 1 1373 1369 1374
171 3 2036 2037 2043
172 2 1226 1225 1228
173 2 1226 1225 1229
174 2 1226 1225 1230
175 1 1228 1225 1229
176 1 1228 1225 1230
177 1 1229 1225 1230
178 3 479 480 486
179 2 119 118 121
180 2 119 118 122
181 2 119 118 123
182 1 121 118 122
183 1 121 118 123
184 1 122 118 123
185 5 1225 1226 1227
186 4 1225 1226 1231
187 4 1225 1226 1232
188 7 1227 1226 1231
189 7 1227 1226 1232
190 6 1231 1226 1232
191 5 1027 1028 1029
192 4 1027 1028 1033
193 4 1027 1028 1034
194 7 1029 1028 1033
195 7 1029 1028 1034
196 6 1033 1028 1034
197 5 478 479 480
198 4 478 479 484
199 4 478 479 485
200 7 480 479 484
201 7 480 479 485
202 6 484 479 485
203 3 1379 1380 1386
204 2 1010 1009 1012
205 2 1010 1009 1013
206 2 1010 1009 1014
207 1 1012 1009 1013
208 1 1012 1009 1014
209 1 1013 1009 1014
210 3 1226 1227 1233
211 2 317 316 319
212 2 317 316 320
213 2 317 316 321
214 1 319 316 320
215 1 319 316 321
216 1 320 316 321
217 2 2036 2035 2038
218 2 2036 2035 2039
219 2 2036 2035 2040
220 1 2038 2035 2039
221 1 2038 2035 2040
222 1 2039 2035 2040
223 5 46 47 48
224 4 46 47 52
225 4 46 47 53
226 7 48 47 52
227 7 48 47 53
228 6 52 47 53
229 5 1891 1892 1893
230 4 1891 1892 1897
231 4 1891 1892 1898
232 7 1893 1892 1897
233 7 1893 1892 1898
234 6 1897 1892 1898
235 5 1009 1010 1011
236 4 1009 1010 1015
237 4 1009 1010 1016
238 7 1011 1010 1015
239 7 1011 1010 1016
240 6 1015 1010 1016
241 3 902 903 909
242 2 1127 1126 1129
243 2 1127 1126 1130
244 2 1127 1126 1131
245 1 1129 1126 1130
246 1 1129 1126 1131
247 1 1130 1126 1131
248 2 1784 1783 1786
249 2 1784 1783 1787
250 2 1784 1783 1788
251 1 1786 1783 1787
252 1 1786 1783 1788
253 1 1787 1783 1788
254 3 2144 2145 2151
255 2 2144 2143 2146
256 2 2144 2143 2147
257 2 2144 2143 2148
258 1 2146 2143 2147
259 1 2146 2143 2148
260 1 2147 2143 2148
261 5 2143 2144 2145
262 4 2143 2144 2149
263 4 2143 2144 2150
264 7 2145 2144 2149
265 7 2145 2144 2150
266 6 2149 2144 2150
267 2 749 748 751
268 2 749 748 752
269 2 749 748 753
270 1 751 748 752
271 1 751 748 753
272 1 752 748 753
273 2 2207 2206 2209
274 2 2207 2206 2210
275 2 2207 2206 2211
276 1 2209 2206 2210
277 1 2209 2206 2211
278 1 2210 2206 2211
279 2 1649 1648 1651
280 2 1649 1648 1652
281 2 1649 1648 1653
282 1 1651 1648 1652
283 1 1651 1648 1653
284 1 1652 1648 1653
285 3 1649 1650 1656
286 3 425 426 432
287 5 1648 1649 1650
288 4 1648 1649 1654
289 4 1648 1649 1655
290 7 1650 1649 1654
291 7 1650 1649 1655
292 6 1654 1649 1655
293 5 1963 1964 1965
294 4 1963 1964 1969
295 4 1963 1964 1970
296 7 1965 1964 1969
297 7 1965 1964 1970
298 6 1969 1964 1970
299 2 1964 1963 1966
300 2 1964 1963 1967
301 2 1964 1963 1968
302 1 1966 1963 1967
303 1 1966 1963 1968
304 1 1967 1963 1968
305 3 1361 1362 1368
306 2 425 424 427
307 2 425 424 428
308 2 425 424 429
309 1 427 424 428
310 1 427 424 429
311 1 428 424 429
312 5 1360 1361 1362
313 4 1360 1361 1366
314 4 1360 1361 1367
315 7 1362 1361 1366
316 7 1362 1361 1367
317 6 1366 1361 1367
318 2 911 910 913
319 2 911 910 914
320 2 911 910 915
321 1 913 910 914
322 1 913 910 915
323 1 914 910 915
324 2 1379 1378 1381
325 2 1379 1378 1382
326 2 1379 1378 1383
327 1 1381 1378 1382
328 1 1381 1378 1383
329 1 1382 1378 1383
330 3 1964 1965 1971
331 3 920 921 927
332 2 1190 1189 1192
333 2 1190 1189 1193
334 2 1190 1189 1194
335 1 1192 1189 1193
336 1 1192 1189 1194
337 1 1193 1189 1194
338 5 424 425 426
339 4 424 425 430
340 4 424 425 431
341 7 426 425 430
342 7 426 425 431
343 6 430 425 431
344 2 1361 1360 1363
345 2 1361 1360 1364
346 2 1361 1360 1365
347 1 1363 1360 1364
348 1 1363 1360 1365
349 1 1364 1360 1365
350 2 308 307 310
351 2 308 307 311
352 2 308 307 312
353 1 310 307 311
354 1 310 307 312
355 1 311 307 312
356 2 1658 1657 1660
357 2 1658 1657 1661
358 2 1658 1657 1662
359 1 1660 1657 1661
360 1 1660 1657 1662
361 1 1661 1657 1662
362 5 2044 2045 2046
363 4 2044 2045 2050
364 4 2044 2045 2051
365 7 2046 2045 2050
366 7 2046 2045 2051
367 6 2050 2045 2051
368 5 1216 1217 1218
369 4 1216 1217 1222
370 4 1216 1217 1223
371 7 1218 1217 1222
372 7 1218 1217 1223
373 6 1222 1217 1223
374 5 1657 1658 1659
375 4 1657 1658 1663
376 4 1657 1658 1664
377 7 1659 1658 1663
378 7 1659 1658 1664
379 6 1663 1658 1664
380 2 2045 2044 2047
381 2 2045 2044 2048
382 2 2045 2044 2049
383 1 2047 2044 2048
384 1 2047 2044 2049
385 1 2048 2044 2049
386 5 712 713 714
387 4 712 713 718
388 4 712 713 719
389 7 714 713 718
390 7 714 713 719
391 6 718 713 719
392 3 704 705 711
393 3 1217 1218 1224
394 3 2045 2046 2052
395 2 1217 1216 1219
396 2 1217 1216 1220
397 2 1217 1216 1221
398 1 1219 1216 1220
399 1 1219 1216 1221
400 1 1220 1216 1221
401 5 703 704 705
402 4 703 704 709
403 4 703 704 710
404 7 705 704 709
405 7 705 704 710
406 6 709 704 710
407 3 1658 1659 1665
408 2 704 703 706
409 2 704 703 707
410 2 704 703 708
411 1 706 703 707
412 1 706 703 708
413 1 707 703 708
414 5 1612 1613 1614
415 4 1612 1613 1618
416 4 1612 1613 1619
417 7 1614 1613 1618
418 7 1614 1613 1619
419 6 1618 1613 1619
420 2 1595 1594 1597
421 2 1595 1594 1598
422 2 1595 1594 1599
423 1 1597 1594 1598
424 1 1597 1594 1599
425 1 1598 1594 1599
426 5 982 983 984
427 4 982 983 988
428 4 982 983 989
429 7 984 983 988
430 7 984 983 989
431 6 988 983 989
432 5 883 884 885
433 4 883 884 889
434 4 883 884 890
435 7 885 884 889
436 7 885 884 890
437 6 889 884 890
438 3 1523 1524 1530
439 2 569 568 571
440 2 569 568 572
441 2 569 568 573
442 1 571 568 572
443 1 571 568 573
444 1 572 568 573
445 3 884 885 891
446 3 1055 1056 1062
447 5 1054 1055 1056
448 4 1054 1055 1060
449 4 1054 1055 1061
450 7 1056 1055 1060
451 7 1056 1055 1061
452 6 1060 1055 1061
453 2 1055 1054 1057
454 2 1055 1054 1058
455 2 1055 1054 1059
456 1 1057 1054 1058
457 1 1057 1054 1059
458 1 1058 1054 1059
459 3 1613 1614 1620
460 3 569 570 576
461 3 1190 1191 1197
462 3 2126 2127 2133
463 5 568 569 570
464 4 568 569 574
465 4 568 569 575
466 7 570 569 574
467 7 570 569 575
468 6 574 569 575
469 2 1028 1027 1030
470 2 1028 1027 1031
471 2 1028 1027 1032
472 1 1030 1027 1031
473 1 1030 1027 1032
474 1 1031 1027 1032
475 5 2125 2126 2127
476 4 2125 2126 2131
477 4 2125 2126 2132
478 7 2127 2126 2131
479 7 2127 2126 2132
480 6 2131 2126 2132
481 5 1189 1190 1191
482 4 1189 1190 1195
483 4 1189 1190 1196
484 7 1191 1190 1195
485 7 1191 1190 1196
486 6 1195 1190 1196
487 2 884 883 886
488 2 884 883 887
489 2 884 883 888
490 1 886 883 887
491 1 886 883 888
492 1 887 883 888
493 2 713 712 715
494 2 713 712 716
495 2 713 712 717
496 1 715 712 716
497 1 715 712 717
498 1 716 712 717
499 5 1594 1595 1596
500 4 1594 1595 1600
501 4 1594 1595 1601
502 7 1596 1595 1600
503 7 1596 1595 1601
504 6 1600 1595 1601
505 2 920 919 922
506 2 920 919 923
507 2 920 919 924
508 1 922 919 923
509 1 922 919 924
510 1 923 919 924
511 2 650 649 652
512 2 650 649 653
513 2 650 649 654
514 1 652 649 653
515 1 652 649 654
516 1 653 649 654
517 5 919 920 921
518 4 919 920 925
519 4 919 920 926
520 7 921 920 925
521 7 921 920 926
522 6 925 920 926
523 3 713 714 720
524 3 1595 1596 1602
525 3 650 651 657
526 5 1522 1523 1524
527 4 1522 1523 1528
528 4 1522 1523 1529
529 7 1524 1523 1528
530 7 1524 1523 1529
531 6 1528 1523 1529
532 5 649 650 651
533 4 649 650 655
534 4 649 650 656
535 7 651 650 655
536 7 651 650 656
537 6 655 650 656
538 3 272 273 279
539 3 839 840 846
540 5 271 272 273
541 4 271 272 277
542 4 271 272 278
543 7 273 272 277
544 7 273 272 278
545 6 277 272 278
546 2 2126 2125 2128
547 2 2126 2125 2129
548 2 2126 2125 2130
549 1 2128 2125 2129
550 1 2128 2125 2130
551 1 2129 2125 2130
552 2 272 271 274
553 2 272 271 275
554 2 272 271 276
555 1 274 271 275
556 1 274 271 276
557 1 275 271 276
558 5 838 839 840
559 4 838 839 844
560 4 838 839 845
561 7 840 839 844
562 7 840 839 845
563 6 844 839 845
564 2 839 838 841
565 2 839 838 842
566 2 839 838 843
567 1 841 838 842
568 1 841 838 843
569 1 842 838 843
570 5 2161 2162 2163
571 4 2161 2162 2167
572 4 2161 2162 2168
573 7 2163 2162 2167
574 7 2163 2162 2168
575 6 2167 2162 2168
576 2 470 469 472
577 2 470 469 473
578 2 470 469 474
579 1 472 469 473
580 1 472 469 474
581 1 473 469 474
582 2 1100 1099 1102
583 2 1100 1099 1103
584 2 1100 1099 1104
585 1 1102 1099 1103
586 1 1102 1099 1104
587 1 1103 1099 1104
588 2 2162 2161 2164
589 2 2162 2161 2165
590 2 2162 2161 2166
591 1 2164 2161 2165
592 1 2164 2161 2166
593 1 2165 2161 2166
594 2 236 235 238
595 2 236 235 239
596 2 236 235 240
597 1 238 235 239
598 1 238 235 240
599 1 239 235 240
600 3 1568 1569 1575
601 2 1154 1153 1156
602 2 1154 1153 1157
603 2 1154 1153 1158
604 1 1156 1153 1157
605 1 1156 1153 1158
606 1 1157 1153 1158
607 3 1154 1155 1161
608 3 1253 1254 1260
609 5 1153 1154 1155
610 4 1153 1154 1159
611 4 1153 1154 1160
612 7 1155 1154 1159
613 7 1155 1154 1160
614 6 1159 1154 1160
615 2 542 541 544
616 2 542 541 545
617 2 542 541 546
618 1 544 541 545
619 1 544 541 546
620 1 545 541 546
621 3 236 237 243
622 3 2162 2163 2169
623 3 794 795 801
624 5 793 794 795
625 4 793 794 799
626 4 793 794 800
627 7 795 794 799
628 7 795 794 800
629 6 799 794 800
630 2 794 793 796
631 2 794 793 797
632 2 794 793 798
633 1 796 793 797
634 1 796 793 798
635 1 797 793 798
636 5 1486 1487 1488
637 4 1486 1487 1492
638 4 1486 1487 1493
639 7 1488 1487 1492
640 7 1488 1487 1493
641 6 1492 1487 1493
642 3 1487 1488 1494
643 2 1487 1486 1489
644 2 1487 1486 1490
645 2 1487 1486 1491
646 1 1489 1486 1490
647 1 1489 1486 1491
648 1 1490 1486 1491
649 5 235 236 237
650 4 235 236 241
651 4 235 236 242
652 7 237 236 241
653 7 237 236 242
654 6 241 236 242
655 3 470 471 477
656 5 64 65 66
657 4 64 65 70
658 4 64 65 71
659 7 66 65 70
660 7 66 65 71
661 6 70 65 71
662 3 317 318 324
663 2 1469 1468 1471
664 2 1469 1468 1472
665 2 1469 1468 1473
666 1 1471 1468 1472
667 1 1471 1468 1473
668 1 1472 1468 1473
669 5 604 605 606
670 4 604 605 610
671 4 604 605 611
672 7 606 605 610
673 7 606 605 611
674 6 610 605 611
675 5 316 317 318
676 4 316 317 322
677 4 316 317 323
678 7 318 317 322
679 7 318 317 323
680 6 322 317 323
681 5 1099 1100 1101
682 4 1099 1100 1105
683 4 1099 1100 1106
684 7 1101 1100 1105
685 7 1101 1100 1106
686 6 1105 1100 1106
687 5 469 470 471
688 4 469 470 475
689 4 469 470 476
690 7 471 470 475
691 7 471 470 476
692 6 475 470 476
693 2 1163 1162 1165
694 2 1163 1162 1166
695 2 1163 1162 1167
696 1 1165 1162 1166
697 1 1165 1162 1167
698 1 1166 1162 1167
699 5 10 11 12
700 4 10 11 16
701 4 10 11 17
702 7 12 11 16
703 7 12 11 17
704 6 16 11 17
705 3 542 543 549
706 3 1163 1164 1170
707 2 11 10 13
708 2 11 10 14
709 2 11 10 15
710 1 13 10 14
711 1 13 10 15
712 1 14 10 15
713 5 1162 1163 1164
714 4 1162 1163 1168
715 4 1162 1163 1169
716 7 1164 1163 1168
717 7 1164 1163 1169
718 6 1168 1163 1169
719 5 541 542 543
720 4 541 542 547
721 4 541 542 548
722 7 543 542 547
723 7 543 542 548
724 6 547 542 548
725 5 280 281 282
726 4 280 281 286
727 4 280 281 287
728 7 282 281 286
729 7 282 281 287
730 6 286 281 287
731 3 1100 1101 1107
732 5 2053 2054 2055
733 4 2053 2054 2059
734 4 2053 2054 2060
735 7 2055 2054 2059
736 7 2055 2054 2060
737 6 2059 2054 2060
738 2 2216 2215 2218
739 2 2216 2215 2219
740 2 2216 2215 2220
741 1 2218 2215 2219
742 1 2218 2215 2220
743 1 2219 2215 2220
744 2 2054 2053 2056
745 2 2054 2053 2057
746 2 2054 2053 2058
747 1 2056 2053 2057
748 1 2056 2053 2058
749 1 2057 2053 2058
750 3 758 759 765
751 2 2000 1999 2002
752 2 2000 1999 2003
753 2 2000 1999 2004
754 1 2002 1999 2003
755 1 2002 1999 2004
756 1 2003 1999 2004
757 2 758 757 760
758 2 758 757 761
759 2 758 757 762
760 1 760 757 761
761 1 760 757 762
762 1 761 757 762
763 5 757 758 759
764 4 757 758 763
765 4 757 758 764
766 7 759 758 763
767 7 759 758 764
768 6 763 758 764
769 5 1549 1550 1551
770 4 1549 1550 1555
771 4 1549 1550 1556
772 7 1551 1550 1555
773 7 1551 1550 1556
774 6 1555 1550 1556
775 3 1550 1551 1557
776 2 1550 1549 1552
777 2 1550 1549 1553
778 2 1550 1549 1554
779 1 1552 1549 1553
780 1 1552 1549 1554
781 1 1553 1549 1554
782 2 983 982 985
783 2 983 982 986
784 2 983 982 987
785 1 985 982 986
786 1 985 982 987
787 1 986 982 987
788 2 1496 1495 1498
789 2 1496 1495 1499
790 2 1496 1495 1500
791 1 1498 1495 1499
792 1 1498 1495 1500
793 1 1499 1495 1500
794 3 11 12 18
795 3 47 48 54
796 3 515 516 522
797 3 1181 1182 1188
798 5 1180 1181 1182
799 4 1180 1181 1186
800 4 1180 1181 1187
801 7 1182 1181 1186
802 7 1182 1181 1187
803 6 1186 1181 1187
804 5 514 515 516
805 4 514 515 520
806 4 514 515 521
807 7 516 515 520
808 7 516 515 521
809 6 520 515 521
810 2 515 514 517
811 2 515 514 518
812 2 515 514 519
813 1 517 514 518
814 1 517 514 519
815 1 518 514 519
816 2 1577 1576 1579
817 2 1577 1576 1580
818 2 1577 1576 1581
819 1 1579 1576 1580
820 1 1579 1576 1581
821 1 1580 1576 1581
822 5 2089 2090 2091
823 4 2089 2090 2095
824 4 2089 2090 2096
825 7 2091 2090 2095
826 7 2091 2090 2096
827 6 2095 2090 2096
828 3 1406 1407 1413
829 2 452 451 454
830 2 452 451 455
831 2 452 451 456
832 1 454 451 455
833 1 454 451 456
834 1 455 451 456
835 3 1325 1326 1332
836 5 1279 1280 1281
837 4 1279 1280 1285
838 4 1279 1280 1286
839 7 1281 1280 1285
840 7 1281 1280 1286
841 6 1285 1280 1286
842 2 263 262 265
843 2 263 262 266
844 2 263 262 267
845 1 265 262 266
846 1 265 262 267
847 1 266 262 267
848 5 937 938 939
849 4 937 938 943
850 4 937 938 944
851 7 939 938 943
852 7 939 938 944
853 6 943 938 944
854 2 1280 1279 1282
855 2 1280 1279 1283
856 2 1280 1279 1284
857 1 1282 1279 1283
858 1 1282 1279 1284
859 1 1283 1279 1284
860 2 2090 2089 2092
861 2 2090 2089 2093
862 2 2090 2089 2094
863 1 2092 2089 2093
864 1 2092 2089 2094
865 1 2093 2089 2094
866 2 1181 1180 1183
867 2 1181 1180 1184
868 2 1181 1180 1185
869 1 1183 1180 1184
870 1 1183 1180 1185
871 1 1184 1180 1185
872 3 1838 1839 1845
873 2 299 298 301
874 2 299 298 302
875 2 299 298 303
876 1 301 298 302
877 1 301 298 303
878 1 302 298 303
879 2 1640 1639 1642
880 2 1640 1639 1643
881 2 1640 1639 1644
882 1 1642 1639 1643
883 1 1642 1639 1644
884 1 1643 1639 1644
885 5 1639 1640 1641
886 4 1639 1640 1645
887 4 1639 1640 1646
888 7 1641 1640 1645
889 7 1641 1640 1646
890 6 1645 1640 1646
891 3 749 750 756
892 2 506 505 508
893 2 506 505 509
894 2 506 505 510
895 1 508 505 509
896 1 508 505 510
897 1 509 505 510
898 2 1838 1837 1840
899 2 1838 1837 1841
900 2 1838 1837 1842
901 1 1840 1837 1841
902 1 1840 1837 1842
903 1 1841 1837 1842
904 5 1837 1838 1839
905 4 1837 1838 1843
906 4 1837 1838 1844
907 7 1839 1838 1843
908 7 1839 1838 1844
909 6 1843 1838 1844
910 2 461 460 463
911 2 461 460 464
912 2 461 460 465
913 1 463 460 464
914 1 463 460 465
915 1 464 460 465
916 3 938 939 945
917 3 263 264 270
918 2 938 937 940
919 2 938 937 941
920 2 938 937 942
921 1 940 937 941
922 1 940 937 942
923 1 941 937 942
924 2 1271 1270 1273
925 2 1271 1270 1274
926 2 1271 1270 1275
927 1 1273 1270 1274
928 1 1273 1270 1275
929 1 1274 1270 1275
930 3 1127 1128 1134
931 3 1271 1272 1278
932 5 2116 2117 2118
933 4 2116 2117 2122
934 4 2116 2117 2123
935 7 2118 2117 2122
936 7 2118 2117 2123
937 6 2122 2117 2123
938 5 1324 1325 1326
939 4 1324 1325 1330
940 4 1324 1325 1331
941 7 1326 1325 1330
942 7 1326 1325 1331
943 6 1330 1325 1331
944 2 1325 1324 1327
945 2 1325 1324 1328
946 2 1325 1324 1329
947 1 1327 1324 1328
948 1 1327 1324 1329
949 1 1328 1324 1329
950 2 2117 2116 2119
951 2 2117 2116 2120
952 2 2117 2116 2121
953 1 2119 2116 2120
954 1 2119 2116 2121
955 1 2120 2116 2121
956 5 1270 1271 1272
957 4 1270 1271 1276
958 4 1270 1271 1277
959 7 1272 1271 1276
960 7 1272 1271 1277
961 6 1276 1271 1277
962 3 2117 2118 2124
963 2 1244 1243 1246
964 2 1244 1243 1247
965 2 1244 1243 1248
966 1 1246 1243 1247
967 1 1246 1243 1248
968 1 1247 1243 1248
969 5 1126 1127 1128
970 4 1126 1127 1132
971 4 1126 1127 1133
972 7 1128 1127 1132
973 7 1128 1127 1133
974 6 1132 1127 1133
975 3 1577 1578 1584
976 3 488 489 495
977 2 1307 1306 1309
978 2 1307 1306 1310
979 2 1307 1306 1311
980 1 1309 1306 1310
981 1 1309 1306 1311
982 1 1310 1306 1311
983 5 1576 1577 1578
984 4 1576 1577 1582
985 4 1576 1577 1583
986 7 1578 1577 1582
987 7 1578 1577 1583
988 6 1582 1577 1583
989 2 1289 1288 1291
990 2 1289 1288 1292
991 2 1289 1288 1293
992 1 1291 1288 1292
993 1 1291 1288 1293
994 1 1292 1288 1293
995 5 262 263 264
996 4 262 263 268
997 4 262 263 269
998 7 264 263 268
999 7 264 263 269
1000 6 268 263 269
1001 2 1667 1666 1669
1002 2 1667 1666 1670
1003 2 1667 1666 1671
1004 1 1669 1666 1670
1005 1 1669 1666 1671
1006 1 1670 1666 1671
1007 5 1405 1406 1407
1008 4 1405 1406 1411
1009 4 1405 1406 1412
1010 7 1407 1406 1411
1011 7 1407 1406 1412
1012 6 1411 1406 1412
1013 2 488 487 490
1014 2 488 487 491
1015 2 488 487 492
1016 1 490 487 491
1017 1 490 487 492
1018 1 491 487 492
1019 5 1288 1289 1290
1020 4 1288 1289 1294
1021 4 1288 1289 1295
1022 7 1290 1289 1294
1023 7 1290 1289 1295
1024 6 1294 1289 1295
1025 2 524 523 526
1026 2 524 523 527
1027 2 524 523 528
1028 1 526 523 527
1029 1 526 523 528
1030 1 527 523 528
1031 3 506 507 513
1032 3 1640 1641 1647
1033 5 505 506 507
1034 4 505 506 511
1035 4 505 506 512
1036 7 507 506 511
1037 7 507 506 512
1038 6 511 506 512
1039 5 523 524 525
1040 4 523 524 529
1041 4 523 524 530
1042 7 525 524 529
1043 7 525 524 530
1044 6 529 524 530
1045 3 1928 1929 1935
1046 5 487 488 489
1047 4 487 488 493
1048 4 487 488 494
1049 7 489 488 493
1050 7 489 488 494
1051 6 493 488 494
1052 3 524 525 531
1053 3 1667 1668 1674
1054 5 1666 1667 1668
1055 4 1666 1667 1672
1056 4 1666 1667 1673
1057 7 1668 1667 1672
1058 7 1668 1667 1673
1059 6 1672 1667 1673
1060 3 1289 1290 1296
1061 2 1793 1792 1795
1062 2 1793 1792 1796
1063 2 1793 1792 1797
1064 1 1795 1792 1796
1065 1 1795 1792 1797
1066 1 1796 1792 1797
1067 3 1280 1281 1287
1068 3 461 462 468
1069 3 695 696 702
1070 2 695 694 697
1071 2 695 694 698
1072 2 695 694 699
1073 1 697 694 698
1074 1 697 694 699
1075 1 698 694 699
1076 5 694 695 696
1077 4 694 695 700
1078 4 694 695 701
1079 7 696 695 700
1080 7 696 695 701
1081 6 700 695 701
1082 5 55 56 57
1083 4 55 56 61
1084 4 55 56 62
1085 7 57 56 61
1086 7 57 56 62
1087 6 61 56 62
1088 3 1199 1200 1206
1089 3 56 57 63
1090 5 1756 1757 1758
1091 4 1756 1757 1762
1092 4 1756 1757 1763
1093 7 1758 1757 1762
1094 7 1758 1757 1763
1095 6 1762 1757 1763
1096 2 56 55 58
1097 2 56 55 59
1098 2 56 55 60
1099 1 58 55 59
1100 1 58 55 60
1101 1 59 55 60
1102 5 1198 1199 1200
1103 4 1198 1199 1204
1104 4 1198 1199 1205
1105 7 1200 1199 1204
1106 7 1200 1199 1205
1107 6 1204 1199 1205
1108 2 866 865 868
1109 2 866 865 869
1110 2 866 865 870
1111 1 868 865 869
1112 1 868 865 870
1113 1 869 865 870
1114 3 407 408 414
1115 3 1397 1398 1404
1116 3 1343 1344 1350
1117 5 406 407 408
1118 4 406 407 412
1119 4 406 407 413
1120 7 408 407 412
1121 7 408 407 413
1122 6 412 407 413
1123 5 1351 1352 1353
1124 4 1351 1352 1357
1125 4 1351 1352 1358
1126 7 1353 1352 1357
1127 7 1353 1352 1358
1128 6 1357 1352 1358
1129 2 407 406 409
1130 2 407 406 410
1131 2 407 406 411
1132 1 409 406 410
1133 1 409 406 411
1134 1 410 406 411
1135 2 1046 1045 1048
1136 2 1046 1045 1049
1137 2 1046 1045 1050
1138 1 1048 1045 1049
1139 1 1048 1045 1050
1140 1 1049 1045 1050
1141 3 1757 1758 1764
1142 2 2171 2170 2173
1143 2 2171 2170 2174
1144 2 2171 2170 2175
1145 1 2173 2170 2174
1146 1 2173 2170 2175
1147 1 2174 2170 2175
1148 5 2170 2171 2172
1149 4 2170 2171 2176
1150 4 2170 2171 2177
1151 7 2172 2171 2176
1152 7 2172 2171 2177
1153 6 2176 2171 2177
1154 3 731 732 738
1155 5 730 731 732
1156 4 730 731 736
1157 4 730 731 737
1158 7 732 731 736
1159 7 732 731 737
1160 6 736 731 737
1161 2 731 730 733
1162 2 731 730 734
1163 2 731 730 735
1164 1 733 730 734
1165 1 733 730 735
1166 1 734 730 735
1167 3 1874 1875 1881
1168 3 2171 2172 2178
1169 2 848 847 850
1170 2 848 847 851
1171 2 848 847 852
1172 1 850 847 851
1173 1 850 847 852
1174 1 851 847 852
1175 5 847 848 849
1176 4 847 848 853
1177 4 847 848 854
1178 7 849 848 853
1179 7 849 848 854
1180 6 853 848 854
1181 3 1559 1560 1566
1182 3 848 849 855
1183 5 865 866 867
1184 4 865 866 871
1185 4 865 866 872
1186 7 867 866 871
1187 7 867 866 872
1188 6 871 866 872
1189 5 1558 1559 1560
1190 4 1558 1559 1564
1191 4 1558 1559 1565
1192 7 1560 1559 1564
1193 7 1560 1559 1565
1194 6 1564 1559 1565
1195 3 1334 1335 1341
1196 2 1334 1333 1336
1197 2 1334 1333 1337
1198 2 1334 1333 1338
1199 1 1336 1333 1337
1200 1 1336 1333 1338
1201 1 1337 1333 1338
1202 2 1874 1873 1876
1203 2 1874 1873 1877
1204 2 1874 1873 1878
1205 1 1876 1873 1877
1206 1 1876 1873 1878
1207 1 1877 1873 1878
1208 2 1757 1756 1759
1209 2 1757 1756 1760
1210 2 1757 1756 1761
1211 1 1759 1756 1760
1212 1 1759 1756 1761
1213 1 1760 1756 1761
1214 5 1396 1397 1398
1215 4 1396 1397 1402
1216 4 1396 1397 1403
1217 7 1398 1397 1402
1218 7 1398 1397 1403
1219 6 1402 1397 1403
1220 3 641 642 648
1221 3 1352 1353 1359
1222 2 1433 1432 1435
1223 2 1433 1432 1436
1224 2 1433 1432 1437
1225 1 1435 1432 1436
1226 1 1435 1432 1437
1227 1 1436 1432 1437
1228 2 641 640 643
1229 2 641 640 644
1230 2 641 640 645
1231 1 643 640 644
1232 1 643 640 645
1233 1 644 640 645
1234 3 1046 1047 1053
1235 5 1432 1433 1434
1236 4 1432 1433 1438
1237 4 1432 1433 1439
1238 7 1434 1433 1438
1239 7 1434 1433 1439
1240 6 1438 1433 1439
1241 3 1433 1434 1440
1242 5 640 641 642
1243 4 640 641 646
1244 4 640 641 647
1245 7 642 641 646
1246 7 642 641 647
1247 6 646 641 647
1248 2 1352 1351 1354
1249 2 1352 1351 1355
1250 2 1352 1351 1356
1251 1 1354 1351 1355
1252 1 1354 1351 1356
1253 1 1355 1351 1356
1254 2 1397 1396 1399
1255 2 1397 1396 1400
1256 2 1397 1396 1401
1257 1 1399 1396 1400
1258 1 1399 1396 1401
1259 1 1400 1396 1401
1260 2 1343 1342 1345
1261 2 1343 1342 1346
1262 2 1343 1342 1347
1263 1 1345 1342 1346
1264 1 1345 1342 1347
1265 1 1346 1342 1347
1266 3 1793 1794 1800
1267 2 209 208 211
1268 2 209 208 212
1269 2 209 208 213
1270 1 211 208 212
1271 1 211 208 213
1272 1 212 208 213
1273 5 460 461 462
1274 4 460 461 466
1275 4 460 461 467
1276 7 462 461 466
1277 7 462 461 467
1278 6 466 461 467
1279 5 1342 1343 1344
1280 4 1342 1343 1348
1281 4 1342 1343 1349
1282 7 1344 1343 1348
1283 7 1344 1343 1349
1284 6 1348 1343 1349
1285 3 866 867 873
1286 2 2072 2071 2074
1287 2 2072 2071 2075
1288 2 2072 2071 2076
1289 1 2074 2071 2075
1290 1 2074 2071 2076
1291 1 2075 2071 2076
1292 3 1775 1776 1782
1293 5 208 209 210
1294 4 208 209 214
1295 4 208 209 215
1296 7 210 209 214
1297 7 210 209 215
1298 6 214 209 215
1299 2 1820 1819 1822
1300 2 1820 1819 1823
1301 2 1820 1819 1824
1302 1 1822 1819 1823
1303 1 1822 1819 1824
1304 1 1823 1819 1824
1305 3 308 309 315
1306 5 307 308 309
1307 4 307 308 313
1308 4 307 308 314
1309 7 309 308 313
1310 7 309 308 314
1311 6 313 308 314
1312 5 1792 1793 1794
1313 4 1792 1793 1798
1314 4 1792 1793 1799
1315 7 1794 1793 1798
1316 7 1794 1793 1799
1317 6 1798 1793 1799
1318 2 1199 1198 1201
1319 2 1199 1198 1202
1320 2 1199 1198 1203
1321 1 1201 1198 1202
1322 1 1201 1198 1203
1323 1 1202 1198 1203
1324 5 1045 1046 1047
1325 4 1045 1046 1051
1326 4 1045 1046 1052
1327 7 1047 1046 1051
1328 7 1047 1046 1052
1329 6 1051 1046 1052
1330 2 1559 1558 1561
1331 2 1559 1558 1562
1332 2 1559 1558 1563
1333 1 1561 1558 1562
1334 1 1561 1558 1563
1335 1 1562 1558 1563
1336 5 1873 1874 1875
1337 4 1873 1874 1879
1338 4 1873 1874 1880
1339 7 1875 1874 1879
1340 7 1875 1874 1880
1341 6 1879 1874 1880
1342 5 244 245 246
1343 4 244 245 250
1344 4 244 245 251
1345 7 246 245 250
1346 7 246 245 251
1347 6 250 245 251
1348 2 245 244 247
1349 2 245 244 248
1350 2 245 244 249
1351 1 247 244 248
1352 1 247 244 249
1353 1 248 244 249
1354 3 1298 1299 1305
1355 3 1856 1857 1863
1356 2 1856 1855 1858
1357 2 1856 1855 1859
1358 2 1856 1855 1860
1359 1 1858 1855 1859
1360 1 1858 1855 1860
1361 1 1859 1855 1860
1362 3 1973 1974 1980
1363 5 2152 2153 2154
1364 4 2152 2153 2158
1365 4 2152 2153 2159
1366 7 2154 2153 2158
1367 7 2154 2153 2159
1368 6 2158 2153 2159
1369 3 245 246 252
1370 5 1927 1928 1929
1371 4 1927 1928 1933
1372 4 1927 1928 1934
1373 7 1929 1928 1933
1374 7 1929 1928 1934
1375 6 1933 1928 1934
1376 2 1928 1927 1930
1377 2 1928 1927 1931
1378 2 1928 1927 1932
1379 1 1930 1927 1931
1380 1 1930 1927 1932
1381 1 1931 1927 1932
1382 5 2017 2018 2019
1383 4 2017 2018 2023
1384 4 2017 2018 2024
1385 7 2019 2018 2023
1386 7 2019 2018 2024
1387 6 2023 2018 2024
1388 5 1297 1298 1299
1389 4 1297 1298 1303
1390 4 1297 1298 1304
1391 7 1299 1298 1303
1392 7 1299 1298 1304
1393 6 1303 1298 1304
1394 2 857 856 859
1395 2 857 856 860
1396 2 857 856 861
1397 1 859 856 860
1398 1 859 856 861
1399 1 860 856 861
1400 2 1298 1297 1300
1401 2 1298 1297 1301
1402 2 1298 1297 1302
1403 1 1300 1297 1301
1404 1 1300 1297 1302
1405 1 1301 1297 1302
1406 5 1855 1856 1857
1407 4 1855 1856 1861
1408 4 1855 1856 1862
1409 7 1857 1856 1861
1410 7 1857 1856 1862
1411 6 1861 1856 1862
1412 5 2215 2216 2217
1413 4 2215 2216 2221
1414 4 2215 2216 2222
1415 7 2217 2216 2221
1416 7 2217 2216 2222
1417 6 2221 2216 2222
1418 5 1630 1631 1632
1419 4 1630 1631 1636
1420 4 1630 1631 1637
1421 7 1632 1631 1636
1422 7 1632 1631 1637
1423 6 1636 1631 1637
1424 2 281 280 283
1425 2 281 280 284
1426 2 281 280 285
1427 1 283 280 284
1428 1 283 280 285
1429 1 284 280 285
1430 2 83 82 85
1431 2 83 82 86
1432 2 83 82 87
1433 1 85 82 86
1434 1 85 82 87
1435 1 86 82 87
1436 3 605 606 612
1437 5 802 803 804
1438 4 802 803 808
1439 4 802 803 809
1440 7 804 803 808
1441 7 804 803 809
1442 6 808 803 809
1443 2 803 802 805
1444 2 803 802 806
1445 2 803 802 807
1446 1 805 802 806
1447 1 805 802 807
1448 1 806 802 807
1449 3 83 84 90
1450 3 803 804 810
1451 5 172 173 174
1452 4 172 173 178
1453 4 172 173 179
1454 7 174 173 178
1455 7 174 173 179
1456 6 178 173 179
1457 3 173 174 180
1458 2 173 172 175
1459 2 173 172 176
1460 2 173 172 177
1461 1 175 172 176
1462 1 175 172 177
1463 1 176 172 177
1464 5 82 83 84
1465 4 82 83 88
1466 4 82 83 89
1467 7 84 83 88
1468 7 84 83 89
1469 6 88 83 89
1470 3 1235 1236 1242
1471 3 65 66 72
1472 2 1253 1252 1255
1473 2 1253 1252 1256
1474 2 1253 1252 1257
1475 1 1255 1252 1256
1476 1 1255 1252 1257
1477 1 1256 1252 1257
1478 5 1252 1253 1254
1479 4 1252 1253 1258
1480 4 1252 1253 1259
1481 7 1254 1253 1258
1482 7 1254 1253 1259
1483 6 1258 1253 1259
1484 2 2198 2197 2200
1485 2 2198 2197 2201
1486 2 2198 2197 2202
1487 1 2200 2197 2201
1488 1 2200 2197 2202
1489 1 2201 2197 2202
1490 2 1235 1234 1237
1491 2 1235 1234 1238
1492 2 1235 1234 1239
1493 1 1237 1234 1238
1494 1 1237 1234 1239
1495 1 1238 1234 1239
1496 5 1972 1973 1974
1497 4 1972 1973 1978
1498 4 1972 1973 1979
1499 7 1974 1973 1978
1500 7 1974 1973 1979
1501 6 1978 1973 1979
1502 2 1775 1774 1777
1503 2 1775 1774 1778
1504 2 1775 1774 1779
1505 1 1777 1774 1778
1506 1 1777 1774 1779
1507 1 1778 1774 1779
1508 5 856 857 858
1509 4 856 857 862
1510 4 856 857 863
1511 7 858 857 862
1512 7 858 857 863
1513 6 862 857 863
1514 5 1234 1235 1236
1515 4 1234 1235 1240
1516 4 1234 1235 1241
1517 7 1236 1235 1240
1518 7 1236 1235 1241
1519 6 1240 1235 1241
1520 2 1730 1729 1732
1521 2 1730 1729 1733
1522 2 1730 1729 1734
1523 1 1732 1729 1733
1524 1 1732 1729 1734
1525 1 1733 1729 1734
1526 2 1919 1918 1921
1527 2 1919 1918 1922
1528 2 1919 1918 1923
1529 1 1921 1918 1922
1530 1 1921 1918 1923
1531 1 1922 1918 1923
1532 5 1774 1775 1776
1533 4 1774 1775 1780
1534 4 1774 1775 1781
1535 7 1776 1775 1780
1536 7 1776 1775 1781
1537 6 1780 1775 1781
1538 2 110 109 112
1539 2 110 109 113
1540 2 110 109 114
1541 1 112 109 113
1542 1 112 109 114
1543 1 113 109 114
1544 5 109 110 111
1545 4 109 110 115
1546 4 109 110 116
1547 7 111 110 115
1548 7 111 110 116
1549 6 115 110 116
1550 2 2018 2017 2020
1551 2 2018 2017 2021
1552 2 2018 2017 2022
1553 1 2020 2017 2021
1554 1 2020 2017 2022
1555 1 2021 2017 2022
1556 3 1730 1731 1737
1557 3 1919 1920 1926
1558 3 551 552 558
1559 5 1918 1919 1920
1560 4 1918 1919 1924
1561 4 1918 1919 1925
1562 7 1920 1919 1924
1563 7 1920 1919 1925
1564 6 1924 1919 1925
1565 3 1307 1308 1314
1566 2 551 550 553
1567 2 551 550 554
1568 2 551 550 555
1569 1 553 550 554
1570 1 553 550 555
1571 1 554 550 555
1572 5 1729 1730 1731
1573 4 1729 1730 1735
1574 4 1729 1730 1736
1575 7 1731 1730 1735
1576 7 1731 1730 1736
1577 6 1735 1730 1736
1578 5 1306 1307 1308
1579 4 1306 1307 1312
1580 4 1306 1307 1313
1581 7 1308 1307 1312
1582 7 1308 1307 1313
1583 6 1312 1307 1313
1584 3 110 111 117
1585 5 550 551 552
1586 4 550 551 556
1587 4 550 551 557
1588 7 552 551 556
1589 7 552 551 557
1590 6 556 551 557
1591 3 1631 1632 1638
1592 3 2018 2019 2025
1593 3 2216 2217 2223
1594 3 857 858 864
1595 3 2027 2028 2034
1596 2 1406 1405 1408
1597 2 1406 1405 1409
1598 2 1406 1405 1410
1599 1 1408 1405 1409
1600 1 1408 1405 1410
1601 1 1409 1405 1410
1602 5 2026 2027 2028
1603 4 2026 2027 2032
1604 4 2026 2027 2033
1605 7 2028 2027 2032
1606 7 2028 2027 2033
1607 6 2032 2027 2033
1608 5 1999 2000 2001
1609 4 1999 2000 2005
1610 4 1999 2000 2006
1611 7 2001 2000 2005
1612 7 2001 2000 2006
1613 6 2005 2000 2006
1614 3 2198 2199 2205
1615 3 1469 1470 1476
1616 5 1468 1469 1470
1617 4 1468 1469 1474
1618 4 1468 1469 1475
1619 7 1470 1469 1474
1620 7 1470 1469 1475
1621 6 1474 1469 1475
1622 2 2153 2152 2155
1623 2 2153 2152 2156
1624 2 2153 2152 2157
1625 1 2155 2152 2156
1626 1 2155 2152 2157
1627 1 2156 2152 2157
1628 2 2027 2026 2029
1629 2 2027 2026 2030
1630 2 2027 2026 2031
1631 1 2029 2026 2030
1632 1 2029 2026 2031
1633 1 2030 2026 2031
1634 2 1631 1630 1633
1635 2 1631 1630 1634
1636 2 1631 1630 1635
1637 1 1633 1630 1634
1638 1 1633 1630 1635
1639 1 1634 1630 1635
1640 5 2197 2198 2199
1641 4 2197 2198 2203
1642 4 2197 2198 2204
1643 7 2199 2198 2203
1644 7 2199 2198 2204
1645 6 2203 2198 2204
1646 3 2153 2154 2160
1647 5 748 749 750
1648 4 748 749 754
1649 4 748 749 755
1650 7 750 749 754
1651 7 750 749 755
1652 6 754 749 755
1653 2 1145 1144 1147
1654 2 1145 1144 1148
1655 2 1145 1144 1149
1656 1 1147 1144 1148
1657 1 1147 1144 1149
1658 1 1148 1144 1149
1659 5 559 560 561
1660 4 559 560 565
1661 4 559 560 566
1662 7 561 560 565
1663 7 561 560 566
1664 6 565 560 566
1665 5 1144 1145 1146
1666 4 1144 1145 1150
1667 4 1144 1145 1151
1668 7 1146 1145 1150
1669 7 1146 1145 1151
1670 6 1150 1145 1151
1671 2 560 559 562
1672 2 560 559 563
1673 2 560 559 564
1674 1 562 559 563
1675 1 562 559 564
1676 1 563 559 564
1677 5 2224 2225 2226
1678 4 2224 2225 2230
1679 4 2224 2225 2231
1680 7 2226 2225 2230
1681 7 2226 2225 2231
1682 6 2230 2225 2231
1683 3 2225 2226 2232
1684 3 776 777 783
1685 3 587 588 594
1686 3 560 561 567
1687 3 1145 1146 1152
1688 5 1981 1982 1983
1689 4 1981 1982 1987
1690 4 1981 1982 1988
1691 7 1983 1982 1987
1692 7 1983 1982 1988
1693 6 1987 1982 1988
1694 5 829 830 831
1695 4 829 830 835
1696 4 829 830 836
1697 7 831 830 835
1698 7 831 830 836
1699 6 835 830 836
1700 3 947 948 954
1701 5 784 785 786
1702 4 784 785 790
1703 4 784 785 791
1704 7 786 785 790
1705 7 786 785 791
1706 6 790 785 791
1707 5 1513 1514 1515
1708 4 1513 1514 1519
1709 4 1513 1514 1520
1710 7 1515 1514 1519
1711 7 1515 1514 1520
1712 6 1519 1514 1520
1713 3 1622 1623 1629
1714 2 1514 1513 1516
1715 2 1514 1513 1517
1716 2 1514 1513 1518
1717 1 1516 1513 1517
1718 1 1516 1513 1518
1719 1 1517 1513 1518
1720 2 659 658 661
1721 2 659 658 662
1722 2 659 658 663
1723 1 661 658 662
1724 1 661 658 663
1725 1 662 658 663
1726 5 2080 2081 2082
1727 4 2080 2081 2086
1728 4 2080 2081 2087
1729 7 2082 2081 2086
1730 7 2082 2081 2087
1731 6 2086 2081 2087
1732 3 830 831 837
1733 3 1982 1983 1989
1734 5 397 398 399
1735 4 397 398 403
1736 4 397 398 404
1737 7 399 398 403
1738 7 399 398 404
1739 6 403 398 404
1740 3 398 399 405
1741 2 398 397 400
1742 2 398 397 401
1743 2 398 397 402
1744 1 400 397 401
1745 1 400 397 402
1746 1 401 397 402
1747 3 1694 1695 1701
1748 5 1693 1694 1695
1749 4 1693 1694 1699
1750 4 1693 1694 1700
1751 7 1695 1694 1699
1752 7 1695 1694 1700
1753 6 1699 1694 1700
1754 2 623 622 625
1755 2 623 622 626
1756 2 623 622 627
1757 1 625 622 626
1758 1 625 622 627
1759 1 626 622 627
1760 2 1892 1891 1894
1761 2 1892 1891 1895
1762 2 1892 1891 1896
1763 1 1894 1891 1895
1764 1 1894 1891 1896
1765 1 1895 1891 1896
1766 2 830 829 832
1767 2 830 829 833
1768 2 830 829 834
1769 1 832 829 833
1770 1 832 829 834
1771 1 833 829 834
1772 3 1505 1506 1512
1773 5 1864 1865 1866
1774 4 1864 1865 1870
1775 4 1864 1865 1871
1776 7 1866 1865 1870
1777 7 1866 1865 1871
1778 6 1870 1865 1871
1779 5 622 623 624
1780 4 622 623 628
1781 4 622 623 629
1782 7 624 623 628
1783 7 624 623 629
1784 6 628 623 629
1785 5 775 776 777
1786 4 775 776 781
1787 4 775 776 782
1788 7 777 776 781
1789 7 777 776 782
1790 6 781 776 782
1791 5 946 947 948
1792 4 946 947 952
1793 4 946 947 953
1794 7 948 947 952
1795 7 948 947 953
1796 6 952 947 953
1797 3 1109 1110 1116
1798 3 1748 1749 1755
1799 5 1747 1748 1749
1800 4 1747 1748 1753
1801 4 1747 1748 1754
1802 7 1749 1748 1753
1803 7 1749 1748 1754
1804 6 1753 1748 1754
1805 3 1829 1830 1836
1806 3 1136 1137 1143
1807 2 1829 1828 1831
1808 2 1829 1828 1832
1809 2 1829 1828 1833
1810 1 1831 1828 1832
1811 1 1831 1828 1833
1812 1 1832 1828 1833
1813 5 2242 2243 2244
1814 4 2242 2243 2248
1815 4 2242 2243 2249
1816 7 2244 2243 2248
1817 7 2244 2243 2249
1818 6 2248 2243 2249
1819 5 73 74 75
1820 4 73 74 79
1821 4 73 74 80
1822 7 75 74 79
1823 7 75 74 80
1824 6 79 74 80
1825 3 74 75 81
1826 3 2243 2244 2250
1827 2 1748 1747 1750
1828 2 1748 1747 1751
1829 2 1748 1747 1752
1830 1 1750 1747 1751
1831 1 1750 1747 1752
1832 1 1751 1747 1752
1833 2 74 73 76
1834 2 74 73 77
1835 2 74 73 78
1836 1 76 73 77
1837 1 76 73 78
1838 1 77 73 78
1839 5 1828 1829 1830
1840 4 1828 1829 1834
1841 4 1828 1829 1835
1842 7 1830 1829 1834
1843 7 1830 1829 1835
1844 6 1834 1829 1835
1845 2 1136 1135 1138
1846 2 1136 1135 1139
1847 2 1136 1135 1140
1848 1 1138 1135 1139
1849 1 1138 1135 1140
1850 1 1139 1135 1140
1851 3 659 660 666
1852 5 370 371 372
1853 4 370 371 376
1854 4 370 371 377
1855 7 372 371 376
1856 7 372 371 377
1857 6 376 371 377
1858 5 1135 1136 1137
1859 4 1135 1136 1141
1860 4 1135 1136 1142
1861 7 1137 1136 1141
1862 7 1137 1136 1142
1863 6 1141 1136 1142
1864 3 371 372 378
1865 5 658 659 660
1866 4 658 659 664
1867 4 658 659 665
1868 7 660 659 664
1869 7 660 659 665
1870 6 664 659 665
1871 2 2081 2080 2083
1872 2 2081 2080 2084
1873 2 2081 2080 2085
1874 1 2083 2080 2084
1875 1 2083 2080 2085
1876 1 2084 2080 2085
1877 2 776 775 778
1878 2 776 775 779
1879 2 776 775 780
1880 1 778 775 779
1881 1 778 775 780
1882 1 779 775 780
1883 3 785 786 792
1884 3 623 624 630
1885 3 2081 2082 2088
1886 2 344 343 346
1887 2 344 343 347
1888 2 344 343 348
1889 1 346 343 347
1890 1 346 343 348
1891 1 347 343 348
1892 5 1108 1109 1110
1893 4 1108 1109 1114
1894 4 1108 1109 1115
1895 7 1110 1109 1114
1896 7 1110 1109 1115
1897 6 1114 1109 1115
1898 3 740 741 747
1899 3 1208 1209 1215
1900 5 1207 1208 1209
1901 4 1207 1208 1213
1902 4 1207 1208 1214
1903 7 1209 1208 1213
1904 7 1209 1208 1214
1905 6 1213 1208 1214
1906 5 739 740 741
1907 4 739 740 745
1908 4 739 740 746
1909 7 741 740 745
1910 7 741 740 746
1911 6 745 740 746
1912 2 1415 1414 1417
1913 2 1415 1414 1418
1914 2 1415 1414 1419
1915 1 1417 1414 1418
1916 1 1417 1414 1419
1917 1 1418 1414 1419
1918 2 740 739 742
1919 2 740 739 743
1920 2 740 739 744
1921 1 742 739 743
1922 1 742 739 744
1923 1 743 739 744
1924 3 1415 1416 1422
1925 5 1414 1415 1416
1926 4 1414 1415 1420
1927 4 1414 1415 1421
1928 7 1416 1415 1420
1929 7 1416 1415 1421
1930 6 1420 1415 1421
1931 5 1945 1946 1947
1932 4 1945 1946 1951
1933 4 1945 1946 1952
1934 7 1947 1946 1951
1935 7 1947 1946 1952
1936 6 1951 1946 1952
1937 2 614 613 616
1938 2 614 613 617
1939 2 614 613 618
1940 1 616 613 617
1941 1 616 613 618
1942 1 617 613 618
1943 3 1946 1947 1953
1944 5 1621 1622 1623
1945 4 1621 1622 1627
1946 4 1621 1622 1628
1947 7 1623 1622 1627
1948 7 1623 1622 1628
1949 6 1627 1622 1628
1950 3 983 984 990
1951 2 956 955 958
1952 2 956 955 959
1953 2 956 955 960
1954 1 958 955 959
1955 1 958 955 960
1956 1 959 955 960
1957 5 1810 1811 1812
1958 4 1810 1811 1816
1959 4 1810 1811 1817
1960 7 1812 1811 1816
1961 7 1812 1811 1817
1962 6 1816 1811 1817
1963 2 1523 1522 1525
1964 2 1523 1522 1526
1965 2 1523 1522 1527
1966 1 1525 1522 1526
1967 1 1525 1522 1527
1968 1 1526 1522 1527
1969 2 1208 1207 1210
1970 2 1208 1207 1211
1971 2 1208 1207 1212
1972 1 1210 1207 1211
1973 1 1210 1207 1212
1974 1 1211 1207 1212
1975 3 1811 1812 1818
1976 3 1514 1515 1521
1977 3 497 498 504
1978 3 137 138 144
1979 5 496 497 498
1980 4 496 497 502
1981 4 496 497 503
1982 7 498 497 502
1983 7 498 497 503
1984 6 502 497 503
1985 2 1622 1621 1624
1986 2 1622 1621 1625
1987 2 1622 1621 1626
1988 1 1624 1621 1625
1989 1 1624 1621 1626
1990 1 1625 1621 1626
1991 2 137 136 139
1992 2 137 136 140
1993 2 137 136 141
1994 1 139 136 140
1995 1 139 136 141
1996 1 140 136 141
1997 3 974 975 981
1998 2 974 973 976
1999 2 974 973 977
2000 2 974 973 978
2001 1 976 973 977
2002 1 976 973 978
2003 1 977 973 978
2004 2 497 496 499
2005 2 497 496 500
2006 2 497 496 501
2007 1 499 496 500
2008 1 499 496 501
2009 1 500 496 501
2010 3 596 597 603
2011 5 136 137 138
2012 4 136 137 142
2013 4 136 137 143
2014 7 138 137 142
2015 7 138 137 143
2016 6 142 137 143
2017 3 956 957 963
2018 5 973 974 975
2019 4 973 974 979
2020 4 973 974 980
2021 7 975 974 979
2022 7 975 974 980
2023 6 979 974 980
2024 5 532 533 534
2025 4 532 533 538
2026 4 532 533 539
2027 7 534 533 538
2028 7 534 533 539
2029 6 538 533 539
2030 2 2243 2242 2245
2031 2 2243 2242 2246
2032 2 2243 2242 2247
2033 1 2245 2242 2246
2034 1 2245 2242 2247
2035 1 2246 2242 2247
2036 3 929 930 936
2037 3 443 444 450
2038 2 1037 1036 1039
2039 2 1037 1036 1040
2040 2 1037 1036 1041
2041 1 1039 1036 1040
2042 1 1039 1036 1041
2043 1 1040 1036 1041
2044 3 1037 1038 1044
2045 5 1036 1037 1038
2046 4 1036 1037 1042
2047 4 1036 1037 1043
2048 7 1038 1037 1042
2049 7 1038 1037 1043
2050 6 1042 1037 1043
2051 2 533 532 535
2052 2 533 532 536
2053 2 533 532 537
2054 1 535 532 536
2055 1 535 532 537
2056 1 536 532 537
2057 2 596 595 598
2058 2 596 595 599
2059 2 596 595 600
2060 1 598 595 599
2061 1 598 595 600
2062 1 599 595 600
2063 3 1712 1713 1719
2064 5 1504 1505 1506
2065 4 1504 1505 1510
2066 4 1504 1505 1511
2067 7 1506 1505 1510
2068 7 1506 1505 1511
2069 6 1510 1505 1511
2070 2 1505 1504 1507
2071 2 1505 1504 1508
2072 2 1505 1504 1509
2073 1 1507 1504 1508
2074 1 1507 1504 1509
2075 1 1508 1504 1509
2076 2 434 433 436
2077 2 434 433 437
2078 2 434 433 438
2079 1 436 433 437
2080 1 436 433 438
2081 1 437 433 438
2082 3 254 255 261
2083 2 929 928 931
2084 2 929 928 932
2085 2 929 928 933
2086 1 931 928 932
2087 1 931 928 933
2088 1 932 928 933
2089 5 595 596 597
2090 4 595 596 601
2091 4 595 596 602
2092 7 597 596 601
2093 7 597 596 602
2094 6 601 596 602
2095 5 928 929 930
2096 4 928 929 934
2097 4 928 929 935
2098 7 930 929 934
2099 7 930 929 935
2100 6 934 929 935
2101 2 2135 2134 2137
2102 2 2135 2134 2138
2103 2 2135 2134 2139
2104 1 2137 2134 2138
2105 1 2137 2134 2139
2106 1 2138 2134 2139
2107 5 955 956 957
2108 4 955 956 961
2109 4 955 956 962
2110 7 957 956 961
2111 7 957 956 962
2112 6 961 956 962
2113 5 1477 1478 1479
2114 4 1477 1478 1483
2115 4 1477 1478 1484
2116 7 1479 1478 1483
2117 7 1479 1478 1484
2118 6 1483 1478 1484
2119 2 1478 1477 1480
2120 2 1478 1477 1481
2121 2 1478 1477 1482
2122 1 1480 1477 1481
2123 1 1480 1477 1482
2124 1 1481 1477 1482
2125 2 443 442 445
2126 2 443 442 446
2127 2 443 442 447
2128 1 445 442 446
2129 1 445 442 447
2130 1 446 442 447
2131 3 1172 1173 1179
2132 5 1171 1172 1173
2133 4 1171 1172 1177
2134 4 1171 1172 1178
2135 7 1173 1172 1177
2136 7 1173 1172 1178
2137 6 1177 1172 1178
2138 2 1712 1711 1714
2139 2 1712 1711 1715
2140 2 1712 1711 1716
2141 1 1714 1711 1715
2142 1 1714 1711 1716
2143 1 1715 1711 1716
2144 5 442 443 444
2145 4 442 443 448
2146 4 442 443 449
2147 7 444 443 448
2148 7 444 443 449
2149 6 448 443 449
2150 3 1478 1479 1485
2151 2 1172 1171 1174
2152 2 1172 1171 1175
2153 2 1172 1171 1176
2154 1 1174 1171 1175
2155 1 1174 1171 1176
2156 1 1175 1171 1176
2157 5 1711 1712 1713
2158 4 1711 1712 1717
2159 4 1711 1712 1718
2160 7 1713 1712 1717
2161 7 1713 1712 1718
2162 6 1717 1712 1718
2163 2 1946 1945 1948
2164 2 1946 1945 1949
2165 2 1946 1945 1950
2166 1 1948 1945 1949
2167 1 1948 1945 1950
2168 1 1949 1945 1950
2169 3 533 534 540
2170 2 2225 2224 2227
2171 2 2225 2224 2228
2172 2 2225 2224 2229
2173 1 2227 2224 2228
2174 1 2227 2224 2229
2175 1 2228 2224 2229
2176 3 2189 2190 2196
2177 5 2188 2189 2190
2178 4 2188 2189 2194
2179 4 2188 2189 2195
2180 7 2190 2189 2194
2181 7 2190 2189 2195
2182 6 2194 2189 2195
2183 5 1684 1685 1686
2184 4 1684 1685 1690
2185 4 1684 1685 1691
2186 7 1686 1685 1690
2187 7 1686 1685 1691
2188 6 1690 1685 1691
2189 2 1685 1684 1687
2190 2 1685 1684 1688
2191 2 1685 1684 1689
2192 1 1687 1684 1688
2193 1 1687 1684 1689
2194 1 1688 1684 1689
2195 3 1685 1686 1692
2196 3 2054 2055 2061
2197 2 632 631 634
2198 2 632 631 635
2199 2 632 631 636
2200 1 634 631 635
2201 1 634 631 636
2202 1 635 631 636
2203 2 2189 2188 2191
2204 2 2189 2188 2192
2205 2 2189 2188 2193
2206 1 2191 2188 2192
2207 1 2191 2188 2193
2208 1 2192 2188 2193
2209 3 632 633 639
2210 2 1865 1864 1867
2211 2 1865 1864 1868
2212 2 1865 1864 1869
2213 1 1867 1864 1868
2214 1 1867 1864 1869
2215 1 1868 1864 1869
2216 3 1001 1002 1008
2217 2 1001 1000 1003
2218 2 1001 1000 1004
2219 2 1001 1000 1005
2220 1 1003 1000 1004
2221 1 1003 1000 1005
2222 1 1004 1000 1005
2223 5 388 389 390
2224 4 388 389 394
2225 4 388 389 395
2226 7 390 389 394
2227 7 390 389 395
2228 6 394 389 395
2229 2 2063 2062 2065
2230 2 2063 2062 2066
2231 2 2063 2062 2067
2232 1 2065 2062 2066
2233 1 2065 2062 2067
2234 1 2066 2062 2067
2235 3 722 723 729
2236 2 389 388 391
2237 2 389 388 392
2238 2 389 388 393
2239 1 391 388 392
2240 1 391 388 393
2241 1 392 388 393
2242 3 2135 2136 2142
2243 3 389 390 396
2244 5 1000 1001 1002
2245 4 1000 1001 1006
2246 4 1000 1001 1007
2247 7 1002 1001 1006
2248 7 1002 1001 1007
2249 6 1006 1001 1007
2250 5 433 434 435
2251 4 433 434 439
2252 4 433 434 440
2253 7 435 434 439
2254 7 435 434 440
2255 6 439 434 440
2256 5 1495 1496 1497
2257 4 1495 1496 1501
2258 4 1495 1496 1502
2259 7 1497 1496 1501
2260 7 1497 1496 1502
2261 6 1501 1496 1502
2262 2 353 352 355
2263 2 353 352 356
2264 2 353 352 357
2265 1 355 352 356
2266 1 355 352 357
2267 1 356 352 357
2268 5 2062 2063 2064
2269 4 2062 2063 2068
2270 4 2062 2063 2069
2271 7 2064 2063 2068
2272 7 2064 2063 2069
2273 6 2068 2063 2069
2274 3 353 354 360
2275 3 2063 2064 2070
2276 3 1496 1497 1503
2277 5 289 290 291
2278 4 289 290 295
2279 4 289 290 296
2280 7 291 290 295
2281 7 291 290 296
2282 6 295 290 296
2283 2 290 289 292
2284 2 290 289 293
2285 2 290 289 294
2286 1 292 289 293
2287 1 292 289 294
2288 1 293 289 294
2289 3 875 876 882
2290 3 290 291 297
2291 3 1460 1461 1467
2292 5 352 353 354
2293 4 352 353 358
2294 4 352 353 359
2295 7 354 353 358
2296 7 354 353 359
2297 6 358 353 359
2298 3 1865 1866 1872
2299 5 1072 1073 1074
2300 4 1072 1073 1078
2301 4 1072 1073 1079
2302 7 1074 1073 1078
2303 7 1074 1073 1079
2304 6 1078 1073 1079
2305 3 281 282 288
2306 2 1568 1567 1570
2307 2 1568 1567 1571
2308 2 1568 1567 1572
2309 1 1570 1567 1571
2310 1 1570 1567 1572
2311 1 1571 1567 1572
2312 2 1388 1387 1390
2313 2 1388 1387 1391
2314 2 1388 1387 1392
2315 1 1390 1387 1391
2316 1 1390 1387 1392
2317 1 1391 1387 1392
2318 2 164 163 166
2319 2 164 163 167
2320 2 164 163 168
2321 1 166 163 167
2322 1 166 163 168
2323 1 167 163 168
2324 5 163 164 165
2325 4 163 164 169
2326 4 163 164 170
2327 7 165 164 169
2328 7 165 164 170
2329 6 169 164 170
2330 2 605 604 607
2331 2 605 604 608
2332 2 605 604 609
2333 1 607 604 608
2334 1 607 604 609
2335 1 608 604 609
2336 3 164 165 171
2337 2 722 721 724
2338 2 722 721 725
2339 2 722 721 726
2340 1 724 721 725
2341 1 724 721 726
2342 1 725 721 726
2343 5 721 722 723
2344 4 721 722 727
2345 4 721 722 728
2346 7 723 722 727
2347 7 723 722 728
2348 6 727 722 728
2349 5 1567 1568 1569
2350 4 1567 1568 1573
2351 4 1567 1568 1574
2352 7 1569 1568 1573
2353 7 1569 1568 1574
2354 6 1573 1568 1574
2355 3 434 435 441
2356 2 587 586 589
2357 2 587 586 590
2358 2 587 586 591
2359 1 589 586 590
2360 1 589 586 591
2361 1 590 586 591
2362 5 892 893 894
2363 4 892 893 898
2364 4 892 893 899
2365 7 894 893 898
2366 7 894 893 899
2367 6 898 893 899
2368 3 1073 1074 1080
2369 2 1073 1072 1075
2370 2 1073 1072 1076
2371 2 1073 1072 1077
2372 1 1075 1072 1076
2373 1 1075 1072 1077
2374 1 1076 1072 1077
2375 5 631 632 633
2376 4 631 632 637
2377 4 631 632 638
2378 7 633 632 637
2379 7 633 632 638
2380 6 637 632 638
2381 2 893 892 895
2382 2 893 892 896
2383 2 893 892 897
2384 1 895 892 896
2385 1 895 892 897
2386 1 896 892 897
2387 5 1459 1460 1461
2388 4 1459 1460 1465
2389 4 1459 1460 1466
2390 7 1461 1460 1465
2391 7 1461 1460 1466
2392 6 1465 1460 1466
2393 3 893 894 900
2394 2 1460 1459 1462
2395 2 1460 1459 1463
2396 2 1460 1459 1464
2397 1 1462 1459 1463
2398 1 1462 1459 1464
2399 1 1463 1459 1464
2400 5 586 587 588
2401 4 586 587 592
2402 4 586 587 593
2403 7 588 587 592
2404 7 588 587 593
2405 6 592 587 593
2406 5 28 29 30
2407 4 28 29 34
2408 4 28 29 35
2409 7 30 29 34
2410 7 30 29 35
2411 6 34 29 35
2412 3 668 669 675
2413 5 667 668 669
2414 4 667 668 673
2415 4 667 668 674
2416 7 669 668 673
2417 7 669 668 674
2418 6 673 668 674
2419 3 812 813 819
2420 2 668 667 670
2421 2 668 667 671
2422 2 668 667 672
2423 1 670 667 671
2424 1 670 667 672
2425 1 671 667 672
2426 3 1532 1533 1539
2427 5 1531 1532 1533
2428 4 1531 1532 1537
2429 4 1531 1532 1538
2430 7 1533 1532 1537
2431 7 1533 1532 1538
2432 6 1537 1532 1538
2433 2 1532 1531 1534
2434 2 1532 1531 1535
2435 2 1532 1531 1536
2436 1 1534 1531 1535
2437 1 1534 1531 1536
2438 1 1535 1531 1536
2439 3 299 300 306
2440 5 1882 1883 1884
2441 4 1882 1883 1888
2442 4 1882 1883 1889
2443 7 1884 1883 1888
2444 7 1884 1883 1889
2445 6 1888 1883 1889
2446 3 380 381 387
2447 3 1721 1722 1728
2448 3 2000 2001 2007
2449 5 811 812 813
2450 4 811 812 817
2451 4 811 812 818
2452 7 813 812 817
2453 7 813 812 818
2454 6 817 812 818
2455 2 1883 1882 1885
2456 2 1883 1882 1886
2457 2 1883 1882 1887
2458 1 1885 1882 1886
2459 1 1885 1882 1887
2460 1 1886 1882 1887
2461 2 326 325 328
2462 2 326 325 329
2463 2 326 325 330
2464 1 328 325 329
2465 1 328 325 330
2466 1 329 325 330
2467 2 812 811 814
2468 2 812 811 815
2469 2 812 811 816
2470 1 814 811 815
2471 1 814 811 816
2472 1 815 811 816
2473 2 2099 2098 2101
2474 2 2099 2098 2102
2475 2 2099 2098 2103
2476 1 2101 2098 2102
2477 1 2101 2098 2103
2478 1 2102 2098 2103
2479 2 362 361 364
2480 2 362 361 365
2481 2 362 361 366
2482 1 364 361 365
2483 1 364 361 366
2484 1 365 361 366
2485 3 2099 2100 2106
2486 5 964 965 966
2487 4 964 965 970
2488 4 964 965 971
2489 7 966 965 970
2490 7 966 965 971
2491 6 970 965 971
2492 3 965 966 972
2493 2 965 964 967
2494 2 965 964 968
2495 2 965 964 969
2496 1 967 964 968
2497 1 967 964 969
2498 1 968 964 969
2499 5 361 362 363
2500 4 361 362 367
2501 4 361 362 368
2502 7 363 362 367
2503 7 363 362 368
2504 6 367 362 368
2505 5 2098 2099 2100
2506 4 2098 2099 2104
2507 4 2098 2099 2105
2508 7 2100 2099 2104
2509 7 2100 2099 2105
2510 6 2104 2099 2105
2511 5 154 155 156
2512 4 154 155 160
2513 4 154 155 161
2514 7 156 155 160
2515 7 156 155 161
2516 6 160 155 161
2517 2 785 784 787
2518 2 785 784 788
2519 2 785 784 789
2520 1 787 784 788
2521 1 787 784 789
2522 1 788 784 789
2523 2 767 766 769
2524 2 767 766 770
2525 2 767 766 771
2526 1 769 766 770
2527 1 769 766 771
2528 1 770 766 771
2529 3 362 363 369
2530 5 2179 2180 2181
2531 4 2179 2180 2185
2532 4 2179 2180 2186
2533 7 2181 2180 2185
2534 7 2181 2180 2186
2535 6 2185 2180 2186
2536 3 992 993 999
2537 5 991 992 993
2538 4 991 992 997
2539 4 991 992 998
2540 7 993 992 997
2541 7 993 992 998
2542 6 997 992 998
2543 3 2108 2109 2115
2544 2 155 154 157
2545 2 155 154 158
2546 2 155 154 159
2547 1 157 154 158
2548 1 157 154 159
2549 1 158 154 159
2550 5 2107 2108 2109
2551 4 2107 2108 2113
2552 4 2107 2108 2114
2553 7 2109 2108 2113
2554 7 2109 2108 2114
2555 6 2113 2108 2114
2556 3 2180 2181 2187
2557 5 1261 1262 1263
2558 4 1261 1262 1267
2559 4 1261 1262 1268
2560 7 1263 1262 1267
2561 7 1263 1262 1268
2562 6 1267 1262 1268
2563 2 2180 2179 2182
2564 2 2180 2179 2183
2565 2 2180 2179 2184
2566 1 2182 2179 2183
2567 1 2182 2179 2184
2568 1 2183 2179 2184
2569 5 1090 1091 1092
2570 4 1090 1091 1096
2571 4 1090 1091 1097
2572 7 1092 1091 1096
2573 7 1092 1091 1097
2574 6 1096 1091 1097
2575 3 1883 1884 1890
2576 2 371 370 373
2577 2 371 370 374
2578 2 371 370 375
2579 1 373 370 374
2580 1 373 370 375
2581 1 374 370 375
2582 3 1937 1938 1944
2583 5 1720 1721 1722
2584 4 1720 1721 1726
2585 4 1720 1721 1727
2586 7 1722 1721 1726
2587 7 1722 1721 1727
2588 6 1726 1721 1727
2589 2 1721 1720 1723
2590 2 1721 1720 1724
2591 2 1721 1720 1725
2592 1 1723 1720 1724
2593 1 1723 1720 1725
2594 1 1724 1720 1725
2595 2 2108 2107 2110
2596 2 2108 2107 2111
2597 2 2108 2107 2112
2598 1 2110 2107 2111
2599 1 2110 2107 2112
2600 1 2111 2107 2112
2601 2 1091 1090 1093
2602 2 1091 1090 1094
2603 2 1091 1090 1095
2604 1 1093 1090 1094
2605 1 1093 1090 1095
2606 1 1094 1090 1095
2607 3 1316 1317 1323
2608 3 1091 1092 1098
2609 5 1936 1937 1938
2610 4 1936 1937 1942
2611 4 1936 1937 1943
2612 7 1938 1937 1942
2613 7 1938 1937 1943
2614 6 1942 1937 1943
2615 3 155 156 162
2616 5 451 452 453
2617 4 451 452 457
2618 4 451 452 458
2619 7 453 452 457
2620 7 453 452 458
2621 6 457 452 458
2622 2 1982 1981 1984
2623 2 1982 1981 1985
2624 2 1982 1981 1986
2625 1 1984 1981 1985
2626 1 1984 1981 1986
2627 1 1985 1981 1986
2628 3 1703 1704 1710
2629 2 1694 1693 1696
2630 2 1694 1693 1697
2631 2 1694 1693 1698
2632 1 1696 1693 1697
2633 1 1696 1693 1698
2634 1 1697 1693 1698
2635 5 298 299 300
2636 4 298 299 304
2637 4 298 299 305
2638 7 300 299 304
2639 7 300 299 305
2640 6 304 299 305
2641 3 767 768 774
2642 5 1900 1901 1902
2643 4 1900 1901 1906
2644 4 1900 1901 1907
2645 7 1902 1901 1906
2646 7 1902 1901 1907
2647 6 1906 1901 1907
2648 5 1702 1703 1704
2649 4 1702 1703 1708
2650 4 1702 1703 1709
2651 7 1704 1703 1708
2652 7 1704 1703 1709
2653 6 1708 1703 1709
2654 2 1703 1702 1705
2655 2 1703 1702 1706
2656 2 1703 1702 1707
2657 1 1705 1702 1706
2658 1 1705 1702 1707
2659 1 1706 1702 1707
2660 5 766 767 768
2661 4 766 767 772
2662 4 766 767 773
2663 7 768 767 772
2664 7 768 767 773
2665 6 772 767 773
2666 3 452 453 459
2667 3 1901 1902 1908
2668 2 1901 1900 1903
2669 2 1901 1900 1904
2670 2 1901 1900 1905
2671 1 1903 1900 1904
2672 1 1903 1900 1905
2673 1 1904 1900 1905
2674 3 344 345 351
2675 5 379 380 381
2676 4 379 380 385
2677 4 379 380 386
2678 7 381 380 385
2679 7 381 380 386
2680 6 385 380 386
2681 3 1262 1263 1269
2682 5 343 344 345
2683 4 343 344 349
2684 4 343 344 350
2685 7 345 344 349
2686 7 345 344 350
2687 6 349 344 350
2688 2 1019 1018 1021
2689 2 1019 1018 1022
2690 2 1019 1018 1023
2691 1 1021 1018 1022
2692 1 1021 1018 1023
2693 1 1022 1018 1023
2694 2 992 991 994
2695 2 992 991 995
2696 2 992 991 996
2697 1 994 991 995
2698 1 994 991 996
2699 1 995 991 996
2700 2 1937 1936 1939
2701 2 1937 1936 1940
2702 2 1937 1936 1941
2703 1 1939 1936 1940
2704 1 1939 1936 1941
2705 1 1940 1936 1941
2706 3 1802 1803 1809
2707 5 676 677 678
2708 4 676 677 682
2709 4 676 677 683
2710 7 678 677 682
2711 7 678 677 683
2712 6 682 677 683
2713 3 677 678 684
2714 2 677 676 679
2715 2 677 676 680
2716 2 677 676 681
2717 1 679 676 680
2718 1 679 676 681
2719 1 680 676 681
2720 5 1819 1820 1821
2721 4 1819 1820 1825
2722 4 1819 1820 1826
2723 7 1821 1820 1825
2724 7 1821 1820 1826
2725 6 1825 1820 1826
2726 2 128 127 130
2727 2 128 127 131
2728 2 128 127 132
2729 1 130 127 131
2730 1 130 127 132
2731 1 131 127 132
2732 3 1847 1848 1854
2733 2 101 100 103
2734 2 101 100 104
2735 2 101 100 105
2736 1 103 100 104
2737 1 103 100 105
2738 1 104 100 105
2739 5 1585 1586 1587
2740 4 1585 1586 1591
2741 4 1585 1586 1592
2742 7 1587 1586 1591
2743 7 1587 1586 1592
2744 6 1591 1586 1592
2745 5 100 101 102
2746 4 100 101 106
2747 4 100 101 107
2748 7 102 101 106
2749 7 102 101 107
2750 6 106 101 107
2751 5 217 218 219
2752 4 217 218 223
2753 4 217 218 224
2754 7 219 218 223
2755 7 219 218 224
2756 6 223 218 224
2757 2 1676 1675 1678
2758 2 1676 1675 1679
2759 2 1676 1675 1680
2760 1 1678 1675 1679
2761 1 1678 1675 1680
2762 1 1679 1675 1680
2763 2 254 253 256
2764 2 254 253 257
2765 2 254 253 258
2766 1 256 253 257
2767 1 256 253 258
2768 1 257 253 258
2769 2 2234 2233 2236
2770 2 2234 2233 2237
2771 2 2234 2233 2238
2772 1 2236 2233 2237
2773 1 2236 2233 2238
2774 1 2237 2233 2238
2775 3 2234 2235 2241
2776 5 2233 2234 2235
2777 4 2233 2234 2239
2778 4 2233 2234 2240
2779 7 2235 2234 2239
2780 7 2235 2234 2240
2781 6 2239 2234 2240
2782 2 218 217 220
2783 2 218 217 221
2784 2 218 217 222
2785 1 220 217 221
2786 1 220 217 222
2787 1 221 217 222
2788 3 1019 1020 1026
2789 5 253 254 255
2790 4 253 254 259
2791 4 253 254 260
2792 7 255 254 259
2793 7 255 254 260
2794 6 259 254 260
2795 3 101 102 108
2796 2 1811 1810 1813
2797 2 1811 1810 1814
2798 2 1811 1810 1815
2799 1 1813 1810 1814
2800 1 1813 1810 1815
2801 1 1814 1810 1815
2802 2 1451 1450 1453
2803 2 1451 1450 1454
2804 2 1451 1450 1455
2805 1 1453 1450 1454
2806 1 1453 1450 1455
2807 1 1454 1450 1455
2808 5 1018 1019 1020
2809 4 1018 1019 1024
2810 4 1018 1019 1025
2811 7 1020 1019 1024
2812 7 1020 1019 1025
2813 6 1024 1019 1025
2814 5 1675 1676 1677
2815 4 1675 1676 1681
2816 4 1675 1676 1682
2817 7 1677 1676 1681
2818 7 1677 1676 1682
2819 6 1681 1676 1682
2820 5 1846 1847 1848
2821 4 1846 1847 1852
2822 4 1846 1847 1853
2823 7 1848 1847 1852
2824 7 1848 1847 1853
2825 6 1852 1847 1853
2826 5 910 911 912
2827 4 910 911 916
2828 4 910 911 917
2829 7 912 911 916
2830 7 912 911 917
2831 6 916 911 917
2832 3 2072 2073 2079
2833 3 1820 1821 1827
2834 5 1333 1334 1335
2835 4 1333 1334 1339
2836 4 1333 1334 1340
2837 7 1335 1334 1339
2838 7 1335 1334 1340
2839 6 1339 1334 1340
2840 3 911 912 918
2841 3 614 615 621
2842 2 92 91 94
2843 2 92 91 95
2844 2 92 91 96
2845 1 94 91 95
2846 1 94 91 96
2847 1 95 91 96
2848 3 578 579 585
2849 5 127 128 129
2850 4 127 128 133
2851 4 127 128 134
2852 7 129 128 133
2853 7 129 128 134
2854 6 133 128 134
2855 3 1586 1587 1593
2856 5 577 578 579
2857 4 577 578 583
2858 4 577 578 584
2859 7 579 578 583
2860 7 579 578 584
2861 6 583 578 584
2862 2 578 577 580
2863 2 578 577 581
2864 2 578 577 582
2865 1 580 577 581
2866 1 580 577 582
2867 1 581 577 582
2868 5 2071 2072 2073
2869 4 2071 2072 2077
2870 4 2071 2072 2078
2871 7 2073 2072 2077
2872 7 2073 2072 2078
2873 6 2077 2072 2078
2874 3 128 129 135
2875 3 92 93 99
2876 5 91 92 93
2877 4 91 92 97
2878 4 91 92 98
2879 7 93 92 97
2880 7 93 92 98
2881 6 97 92 98
2882 3 209 210 216
2883 5 613 614 615
2884 4 613 614 619
2885 4 613 614 620
2886 7 615 614 619
2887 7 615 614 620
2888 6 619 614 620
2889 5 1450 1451 1452
2890 4 1450 1451 1456
2891 4 1450 1451 1457
2892 7 1452 1451 1456
2893 7 1452 1451 1457
2894 6 1456 1451 1457
2895 3 1604 1605 1611
2896 5 1315 1316 1317
2897 4 1315 1316 1321
2898 4 1315 1316 1322
2899 7 1317 1316 1321
2900 7 1317 1316 1322
2901 6 1321 1316 1322
2902 2 1316 1315 1318
2903 2 1316 1315 1319
2904 2 1316 1315 1320
2905 1 1318 1315 1319
2906 1 1318 1315 1320
2907 1 1319 1315 1320
2908 3 1118 1119 1125
2909 5 1603 1604 1605
2910 4 1603 1604 1609
2911 4 1603 1604 1610
2912 7 1605 1604 1609
2913 7 1605 1604 1610
2914 6 1609 1604 1610
2915 2 1586 1585 1588
2916 2 1586 1585 1589
2917 2 1586 1585 1590
2918 1 1588 1585 1589
2919 1 1588 1585 1590
2920 1 1589 1585 1590
2921 3 1451 1452 1458
2922 2 1766 1765 1768
2923 2 1766 1765 1769
2924 2 1766 1765 1770
2925 1 1768 1765 1769
2926 1 1768 1765 1770
2927 1 1769 1765 1770
2928 2 1604 1603 1606
2929 2 1604 1603 1607
2930 2 1604 1603 1608
2931 1 1606 1603 1607
2932 1 1606 1603 1608
2933 1 1607 1603 1608
2934 5 1117 1118 1119
2935 4 1117 1118 1123
2936 4 1117 1118 1124
2937 7 1119 1118 1123
2938 7 1119 1118 1124
2939 6 1123 1118 1124
2940 5 1765 1766 1767
2941 4 1765 1766 1771
2942 4 1765 1766 1772
2943 7 1767 1766 1771
2944 7 1767 1766 1772
2945 6 1771 1766 1772
2946 3 1766 1767 1773
2947 2 1118 1117 1120
2948 2 1118 1117 1121
2949 2 1118 1117 1122
2950 1 1120 1117 1121
2951 1 1120 1117 1122
2952 1 1121 1117 1122
2953 2 1847 1846 1849
2954 2 1847 1846 1850
2955 2 1847 1846 1851
2956 1 1849 1846 1850
2957 1 1849 1846 1851
2958 1 1850 1846 1851
2959 2 1109 1108 1111
2960 2 1109 1108 1112
2961 2 1109 1108 1113
2962 1 1111 1108 1112
2963 1 1111 1108 1113
2964 1 1112 1108 1113
2965 3 218 219 225
2966 3 1676 1677 1683
2967 5 685 686 687
2968 4 685 686 691
2969 4 685 686 692
2970 7 687 686 691
2971 7 687 686 692
2972 6 691 686 692
2973 2 1424 1423 1426
2974 2 1424 1423 1427
2975 2 1424 1423 1428
2976 1 1426 1423 1427
2977 1 1426 1423 1428
2978 1 1427 1423 1428
2979 3 2 3 9
2980 3 29 30 36
2981 3 1388 1389 1395
2982 5 1423 1424 1425
2983 4 1423 1424 1429
2984 4 1423 1424 1430
2985 7 1425 1424 1429
2986 7 1425 1424 1430
2987 6 1429 1424 1430
2988 3 1424 1425 1431
2989 5 1 2 3
2990 4 1 2 7
2991 4 1 2 8
2992 7 3 2 7
2993 7 3 2 8
2994 6 7 2 8
2995 2 380 379 382
2996 2 380 379 383
2997 2 380 379 384
2998 1 382 379 383
2999 1 382 379 384
3000 1 383 379 384
3001 2 2 1 4
3002 2 2 1 5
3003 2 2 1 6
3004 1 4 1 5
3005 1 4 1 6
3006 1 5 1 6
3007 2 686 685 688
3008 2 686 685 689
3009 2 686 685 690
3010 1 688 685 689
3011 1 688 685 690
3012 1 689 685 690
3013 2 29 28 31
3014 2 29 28 32
3015 2 29 28 33
3016 1 31 28 32
3017 1 31 28 33
3018 1 32 28 33
3019 3 686 687 693
3020 2 1973 1972 1975
3021 2 1973 1972 1976
3022 2 1973 1972 1977
3023 1 1975 1972 1976
3024 1 1975 1972 1977
3025 1 1976 1972 1977
3026 2 875 874 877
3027 2 875 874 878
3028 2 875 874 879
3029 1 877 874 878
3030 1 877 874 879
3031 1 878 874 879
3032 5 1243 1244 1245
3033 4 1243 1244 1249
3034 4 1243 1244 1250
3035 7 1245 1244 1249
3036 7 1245 1244 1250
3037 6 1249 1244 1250
3038 5 226 227 228
3039 4 226 227 232
3040 4 226 227 233
3041 7 228 227 232
3042 7 228 227 233
3043 6 232 227 233
3044 3 227 228 234
3045 2 227 226 229
3046 2 227 226 230
3047 2 227 226 231
3048 1 229 226 230
3049 1 229 226 231
3050 1 230 226 231
3051 2 335 334 337
3052 2 335 334 338
3053 2 335 334 339
3054 1 337 334 338
3055 1 337 334 339
3056 1 338 334 339
3057 3 335 336 342
3058 2 2009 2008 2011
3059 2 2009 2008 2012
3060 2 2009 2008 2013
3061 1 2011 2008 2012
3062 1 2011 2008 2013
3063 1 2012 2008 2013
3064 3 2009 2010 2016
3065 5 2008 2009 2010
3066 4 2008 2009 2014
3067 4 2008 2009 2015
3068 7 2010 2009 2014
3069 7 2010 2009 2015
3070 6 2014 2009 2015
3071 5 1540 1541 1542
3072 4 1540 1541 1546
3073 4 1540 1541 1547
3074 7 1542 1541 1546
3075 7 1542 1541 1547
3076 6 1546 1541 1547
3077 3 1541 1542 1548
3078 5 1441 1442 1443
3079 4 1441 1442 1447
3080 4 1441 1442 1448
3081 7 1443 1442 1447
3082 7 1443 1442 1448
3083 6 1447 1442 1448
3084 2 1541 1540 1543
3085 2 1541 1540 1544
3086 2 1541 1540 1545
3087 1 1543 1540 1544
3088 1 1543 1540 1545
3089 1 1544 1540 1545
3090 2 1442 1441 1444
3091 2 1442 1441 1445
3092 2 1442 1441 1446
3093 1 1444 1441 1445
3094 1 1444 1441 1446
3095 1 1445 1441 1446
3096 5 334 335 336
3097 4 334 335 340
3098 4 334 335 341
3099 7 336 335 340
3100 7 336 335 341
3101 6 340 335 341
3102 2 1802 1801 1804
3103 2 1802 1801 1805
3104 2 1802 1801 1806
3105 1 1804 1801 1805
3106 1 1804 1801 1806
3107 1 1805 1801 1806
3108 5 874 875 876
3109 4 874 875 880
3110 4 874 875 881
3111 7 876 875 880
3112 7 876 875 881
3113 6 880 875 881
3114 5 37 38 39
3115 4 37 38 43
3116 4 37 38 44
3117 7 39 38 43
3118 7 39 38 44
3119 6 43 38 44
3120 2 191 190 193
3121 2 191 190 194
3122 2 191 190 195
3123 1 193 190 194
3124 1 193 190 195
3125 1 194 190 195
3126 2 200 199 202
3127 2 200 199 203
3128 2 200 199 204
3129 1 202 199 203
3130 1 202 199 204
3131 1 203 199 204
3132 5 190 191 192
3133 4 190 191 196
3134 4 190 191 197
3135 7 192 191 196
3136 7 192 191 197
3137 6 196 191 197
3138 3 191 192 198
3139 5 415 416 417
3140 4 415 416 421
3141 4 415 416 422
3142 7 417 416 421
3143 7 417 416 422
3144 6 421 416 422
3145 3 200 201 207
3146 3 416 417 423
3147 5 199 200 201
3148 4 199 200 205
3149 4 199 200 206
3150 7 201 200 205
3151 7 201 200 206
3152 6 205 200 206
3153 2 416 415 418
3154 2 416 415 419
3155 2 416 415 420
3156 1 418 415 419
3157 1 418 415 420
3158 1 419 415 420
3159 3 38 39 45
3160 3 1244 1245 1251
3161 2 38 37 40
3162 2 38 37 41
3163 2 38 37 42
3164 1 40 37 41
3165 1 40 37 42
3166 1 41 37 42
3167 5 1909 1910 1911
3168 4 1909 1910 1915
3169 4 1909 1910 1916
3170 7 1911 1910 1915
3171 7 1911 1910 1916
3172 6 1915 1910 1916
3173 5 1801 1802 1803
3174 4 1801 1802 1807
3175 4 1801 1802 1808
3176 7 1803 1802 1807
3177 7 1803 1802 1808
3178 6 1807 1802 1808
3179 3 1910 1911 1917
3180 5 181 182 183
3181 4 181 182 187
3182 4 181 182 188
3183 7 183 182 187
3184 7 183 182 188
3185 6 187 182 188
3186 5 1387 1388 1389
3187 4 1387 1388 1393
3188 4 1387 1388 1394
3189 7 1389 1388 1393
3190 7 1389 1388 1394
3191 6 1393 1388 1394
3192 3 326 327 333
3193 3 1442 1443 1449
3194 3 1064 1065 1071
3195 2 1064 1063 1066
3196 2 1064 1063 1067
3197 2 1064 1063 1068
3198 1 1066 1063 1067
3199 1 1066 1063 1068
3200 1 1067 1063 1068
3201 2 1910 1909 1912
3202 2 1910 1909 1913
3203 2 1910 1909 1914
3204 1 1912 1909 1913
3205 1 1912 1909 1914
3206 1 1913 1909 1914
3207 5 325 326 327
3208 4 325 326 331
3209 4 325 326 332
3210 7 327 326 331
3211 7 327 326 332
3212 6 331 326 332
3213 5 1063 1064 1065
3214 4 1063 1064 1069
3215 4 1063 1064 1070
3216 7 1065 1064 1069
3217 7 1065 1064 1070
3218 6 1069 1064 1070
3219 2 182 181 184
3220 2 182 181 185
3221 2 182 181 186
3222 1 184 181 185
3223 1 184 181 186
3224 1 185 181 186
3225 2 821 820 823
3226 2 821 820 824
3227 2 821 820 825
3228 1 823 820 824
3229 1 823 820 825
3230 1 824 820 825
3231 3 821 822 828
3232 3 182 183 189
3233 5 820 821 822
3234 4 820 821 826
3235 4 820 821 827
3236 7 822 821 826
3237 7 822 821 827
3238 6 826 821 827
3239 2 1262 1261 1264
3240 2 1262 1261 1265
3241 2 1262 1261 1266
3242 1 1264 1261 1265
3243 1 1264 1261 1266
3244 1 1265 1261 1266
3245 5 2134 2135 2136
3246 4 2134 2135 2140
3247 4 2134 2135 2141
3248 7 2136 2135 2140
3249 7 2136 2135 2141
3250 6 2140 2135 2141

Dihedrals

1 3 118 119 120 126
2 2 120 119 118 121
3 2 120 119 118 122
4 2 120 119 118 123
5 4 124 119 120 126
6 4 125 119 120 126
7 3 145 146 147 153
8 2 147 146 145 148
9 2 147 146 145 149
10 2 147 146 145 150
11 4 151 146 147 153
12 4 152 146 147 153
13 3 1954 1955 1956 1962
14 2 1956 1955 1954 1957
15 2 1956 1955 1954 1958
16 2 1956 1955 1954 1959
17 4 1960 1955 1956 1962
18 4 1961 1955 1956 1962
19 1 1741 1738 1739 1744
20 1 1741 1738 1739 1745
21 1 1742 1738 1739 1744
22 1 1742 1738 1739 1745
23 1 1743 1738 1739 1744
24 1 1743 1738 1739 1745
25 3 19 20 21 27
26 2 21 20 19 22
27 2 21 20 19 23
28 2 21 20 19 24
29 4 25 20 21 27
30 4 26 20 21 27
31 3 1738 1739 1740 1746
32 2 1740 1739 1738 1741
33 2 1740 1739 1738 1742
34 2 1740 1739 1738 1743
35 4 1744 1739 1740 1746
36 4 1745 1739 1740 1746
37 1 1957 1954 1955 1960
38 1 1957 1954 1955 1961
39 1 1958 1954 1955 1960
40 1 1958 1954 1955 1961
41 1 1959 1954 1955 1960
42 1 1959 1954 1955 1961
43 1 148 145 146 151
44 1 148 145 146 152
45 1 149 145 146 151
46 1 149 145 146 152
47 1 150 145 146 151
48 1 150 145 146 152
49 1 22 19 20 25
50 1 22 19 20 26
51 1 23 19 20 25
52 1 23 19 20 26
53 1 24 19 20 25
54 1 24 19 20 26
55 1 67 64 65 70
56 1 67 64 65 71
57 1 68 64 65 70
58 1 68 64 65 71
59 1 69 64 65 70
60 1 69 64 65 71
61 3 1783 1784 1785 1791
62 2 1785 1784 1783 1786
63 2 1785 1784 1783 1787
64 2 1785 1784 1783 1788
65 4 1789 1784 1785 1791
66 4 1790 1784 1785 1791
67 1 904 901 902 907
68 1 904 901 902 908
69 1 905 901 902 907
70 1 905 901 902 908
71 1 906 901 902 907
72 1 906 901 902 908
73 3 1990 1991 1992 1998
74 2 1992 1991 1990 1993
75 2 1992 1991 1990 1994
76 2 1992 1991 1990 1995
77 4 1996 1991 1992 1998
78 4 1997 1991 1992 1998
79 1 1993 1990 1991 1996
80 1 1993 1990 1991 1997
81 1 1994 1990 1991 1996
82 1 1994 1990 1991 1997
83 1 1995 1990 1991 1996
84 1 1995 1990 1991 1997
85 3 901 902 903 909
86 2 903 902 901 904
87 2 903 902 901 905
88 2 903 902 901 906
89 4 907 902 903 909
90 4 908 902 903 909
91 1 1084 1081 1082 1087
92 1 1084 1081 1082 1088
93 1 1085 1081 1082 1087
94 1 1085 1081 1082 1088
95 1 1086 1081 1082 1087
96 1 1086 1081 1082 1088
97 3 1081 1082 1083 1089
98 2 1083 1082 1081 1084
99 2 1083 1082 1081 1085
100 2 1083 1082 1081 1086
101 4 1087 1082 1083 1089
102 4 1088 1082 1083 1089
103 3 2035 2036 2037 2043
104 2 2037 2036 2035 2038
105 2 2037 2036 2035 2039
106 2 2037 2036 2035 2040
107 4 2041 2036 2037 2043
108 4 2042 2036 2037 2043
109 1 949 946 947 952
110 1 949 946 947 953
111 1 950 946 947 952
112 1 950 946 947 953
113 1 951 946 947 952
114 1 951 946 947 953
115 3 2206 2207 2208 2214
116 2 2208 2207 2206 2209
117 2 2208 2207 2206 2210
118 2 2208 2207 2206 2211
119 4 2212 2207 2208 2214
120 4 2213 2207 2208 2214
121 3 1378 1379 1380 1386
122 2 1380 1379 1378 1381
123 2 1380 1379 1378 1382
124 2 1380 1379 1378 1383
125 4 1384 1379 1380 1386
126 4 1385 1379 1380 1386
127 1 1615 1612 1613 1618
128 1 1615 1612 1613 1619
129 1 1616 1612 1613 1618
130 1 1616 1612 1613 1619
131 1 1617 1612 1613 1618
132 1 1617 1612 1613 1619
133 1 481 478 479 484
134 1 481 478 479 485
135 1 482 478 479 484
136 1 482 478 479 485
137 1 483 478 479 484
138 1 483 478 479 485
139 1 49 46 47 52
140 1 49 46 47 53
141 1 50 46 47 52
142 1 50 46 47 53
143 1 51 46 47 52
144 1 51 46 47 53
145 3 1369 1370 1371 1377
146 2 1371 1370 1369 1372
147 2 1371 1370 1369 1373
148 2 1371 1370 1369 1374
149 4 1375 1370 1371 1377
150 4 1376 1370 1371 1377
151 1 1372 1369 1370 1375
152 1 1372 1369 1370 1376
153 1 1373 1369 1370 1375
154 1 1373 1369 1370 1376
155 1 1374 1369 1370 1375
156 1 1374 1369 1370 1376
157 1 1228 1225 1226 1231
158 1 1228 1225 1226 1232
159 1 1229 1225 1226 1231
160 1 1229 1225 1226 1232
161 1 1230 1225 1226 1231
162 1 1230 1225 1226 1232
163 1 121 118 119 124
164 1 121 118 119 125
165 1 122 118 119 124
166 1 122 118 119 125
167 1 123 118 119 124
168 1 123 118 119 125
169 3 1225 1226 1227 1233
170 2 1227 1226 1225 1228
171 2 1227 1226 1225 1229
172 2 1227 1226 1225 1230
173 4 1231 1226 1227 1233
174 4 1232 1226 1227 1233
175 3 1027 1028 1029 1035
176 2 1029 1028 1027 1030
177 2 1029 1028 1027 1031
178 2 1029 1028 1027 1032
179 4 1033 1028 1029 1035
180 4 1034 1028 1029 1035
181 3 478 479 480 486
182 2 480 479 478 481
183 2 480 479 478 482
184 2 480 479 478 483
185 4 484 479 480 486
186 4 485 479 480 486
187 1 1012 1009 1010 1015
188 1 1012 1009 1010 1016
189 1 1013 1009 1010 1015
190 1 1013 1009 1010 1016
191 1 1014 1009 1010 1015
192 1 1014 1009 1010 1016
193 1 319 316 317 322
194 1 319 316 317 323
195 1 320 316 317 322
196 1 320 316 317 323
197 1 321 316 317 322
198 1 321 316 317 323
199 1 2038 2035 2036 2041
200 1 2038 2035 2036 2042
201 1 2039 2035 2036 2041
202 1 2039 2035 2036 2042
203 1 2040 2035 2036 2041
204 1 2040 2035 2036 2042
205 3 46 47 48 54
206 2 48 47 46 49
207 2 48 47 46 50
208 2 48 47 46 51
209 4 52 47 48 54
210 4 53 47 48 54
211 3 1891 1892 1893 1899
212 2 1893 1892 1891 1894
213 2 1893 1892 1891 1895
214 2 1893 1892 1891 1896
215 4 1897 1892 1893 1899
216 4 1898 1892 1893 1899
217 3 1009 1010 1011 1017
218 2 1011 1010 1009 1012
219 2 1011 1010 1009 1013
220 2 1011 1010 1009 1014
221 4 1015 1010 1011 1017
222 4 1016 1010 1011 1017
223 1 1129 1126 1127 1132
224 1 1129 1126 1127 1133
225 1 1130 1126 1127 1132
226 1 1130 1126 1127 1133
227 1 1131 1126 1127 1132
228 1 1131 1126 1127 1133
229 1 1786 1783 1784 1789
230 1 1786 1783 1784 1790
231 1 1787 1783 1784 1789
232 1 1787 1783 1784 1790
233 1 1788 1783 1784 1789
234 1 1788 1783 1784 1790
235 1 2146 2143 2144 2149
236 1 2146 2143 2144 2150
237 1 2147 2143 2144 2149
238 1 2147 2143 2144 2150
239 1 2148 2143 2144 2149
240 1 2148 2143 2144 2150
241 3 2143 2144 2145 2151
242 2 2145 2144 2143 2146
243 2 2145 2144 2143 2147
244 2 2145 2144 2143 2148
245 4 2149 2144 2145 2151
246 4 2150 2144 2145 2151
247 1 751 748 749 754
248 1 751 748 749 755
249 1 752 748 749 754
250 1 752 748 749 755
251 1 753 748 749 754
252 1 753 748 749 755
253 1 2209 2206 2207 2212
254 1 2209 2206 2207 2213
255 1 2210 2206 2207 2212
256 1 2210 2206 2207 2213
257 1 2211 2206 2207 2212
258 1 2211 2206 2207 2213
259 1 1651 1648 1649 1654
260 1 1651 1648 1649 1655
261 1 1652 1648 1649 1654
262 1 1652 1648 1649 1655
263 1 1653 1648 1649 1654
264 1 1653 1648 1649 1655
265 3 1648 1649 1650 1656
266 2 1650 1649 1648 1651
267 2 1650 1649 1648 1652
268 2 1650 1649 1648 1653
269 4 1654 1649 1650 1656
270 4 1655 1649 1650 1656
271 3 1963 1964 1965 1971
272 2 1965 1964 1963 1966
273 2 1965 1964 1963 1967
274 2 1965 1964 1963 1968
275 4 1969 1964 1965 1971
276 4 1970 1964 1965 1971
277 1 1966 1963 1964 1969
278 1 1966 1963 1964 1970
279 1 1967 1963 1964 1969
280 1 1967 1963 1964 1970
281 1 1968 1963 1964 1969
282 1 1968 1963 1964 1970
283 1 427 424 425 430
284 1 427 424 425 431
285 1 428 424 425 430
286 1 428 424 425 431
287 1 429 424 425 430
288 1 429 424 425 431
289 3 1360 1361 1362 1368
290 2 1362 1361 1360 1363
291 2 1362 1361 1360 1364
292 2 1362 1361 1360 1365
293 4 1366 1361 1362 1368
294 4 1367 1361 1362 1368
295 1 913 910 911 916
296 1 913 910 911 917
297 1 914 910 911 916
298 1 914 910 911 917
299 1 915 910 911 916
300 1 915 910 911 917
301 1 1381 1378 1379 1384
302 1 1381 1378 1379 1385
303 1 1382 1378 1379 1384
304 1 1382 1378 1379 1385
305 1 1383 1378 1379 1384
306 1 1383 1378 1379 1385
307 1 1192 1189 1190 1195
308 1 1192 1189 1190 1196
309 1 1193 1189 1190 1195
310 1 1193 1189 1190 1196
311 1 1194 1189 1190 1195
312 1 1194 1189 1190 1196
313 3 424 425 426 432
314 2 426 425 424 427
315 2 426 425 424 428
316 2 426 425 424 429
317 4 430 425 426 432
318 4 431 425 426 432
319 1 1363 1360 1361 1366
320 1 1363 1360 1361 1367
321 1 1364 1360 1361 1366
322 1 1364 1360 1361 1367
323 1 1365 1360 1361 1366
324 1 1365 1360 1361 1367
325 1 310 307 308 313
326 1 310 307 308 314
327 1 311 307 308 313
328 1 311 307 308 314
329 1 312 307 308 313
330 1 312 307 308 314
331 1 1660 1657 1658 1663
332 1 1660 1657 1658 1664
333 1 1661 1657 1658 1663
334 1 1661 1657 1658 1664
335 1 1662 1657 1658 1663
336 1 1662 1657 1658 1664
337 3 2044 2045 2046 2052
338 2 2046 2045 2044 2047
339 2 2046 2045 2044 2048
340 2 2046 2045 2044 2049
341 4 2050 2045 2046 2052
342 4 2051 2045 2046 2052
343 3 1216 1217 1218 1224
344 2 1218 1217 1216 1219
345 2 1218 1217 1216 1220
346 2 1218 1217 1216 1221
347 4 1222 1217 1218 1224
348 4 1223 1217 1218 1224
349 3 1657 1658 1659 1665
350 2 1659 1658 1657 1660
351 2 1659 1658 1657 1661
352 2 1659 1658 1657 1662
353 4 1663 1658 1659 1665
354 4 1664 1658 1659 1665
355 1 2047 2044 2045 2050
356 1 2047 2044 2045 2051
357 1 2048 2044 2045 2050
358 1 2048 2044 2045 2051
359 1 2049 2044 2045 2050
360 1 2049 2044 2045 2051
361 3 712 713 714 720
362 2 714 713 712 715
363 2 714 713 712 716
364 2 714 713 712 717
365 4 718 713 714 720
366 4 719 713 714 720
367 1 1219 1216 1217 1222
368 1 1219 1216 1217 1223
369 1 1220 1216 1217 1222
370 1 1220 1216 1217 1223
371 1 1221 1216 1217 1222
372 1 1221 1216 1217 1223
373 3 703 704 705 711
374 2 705 704 703 706
375 2 705 704 703 707
376 2 705 704 703 708
377 4 709 704 705 711
378 4 710 704 705 711
379 1 706 703 704 709
380 1 706 703 704 710
381 1 707 703 704 709
382 1 707 703 704 710
383 1 708 703 704 709
384 1 708 703 704 710
385 3 1612 1613 1614 1620
386 2 1614 1613 1612 1615
387 2 1614 1613 1612 1616
388 2 1614 1613 1612 1617
389 4 1618 1613 1614 1620
390 4 1619 1613 1614 1620
391 1 1597 1594 1595 1600
392 1 1597 1594 1595 1601
393 1 1598 1594 1595 1600
394 1 1598 1594 1595 1601
395 1 1599 1594 1595 1600
396 1 1599 1594 1595 1601
397 3 982 983 984 990
398 2 984 983 982 985
399 2 984 983 982 986
400 2 984 983 982 987
401 4 988 983 984 990
402 4 989 983 984 990
403 3 883 884 885 891
404 2 885 884 883 886
405 2 885 884 883 887
406 2 885 884 883 888
407 4 889 884 885 891
408 4 890 884 885 891
409 1 571 568 569 574
410 1 571 568 569 575
411 1 572 568 569 574
412 1 572 568 569 575
413 1 573 568 569 574
414 1 573 568 569 575
415 3 1054 1055 1056 1062
416 2 1056 1055 1054 1057
417 2 1056 1055 1054 1058
418 2 1056 1055 1054 1059
419 4 1060 1055 1056 1062
420 4 1061 1055 1056 1062
421 1 1057 1054 1055 1060
422 1 1057 1054 1055 1061
423 1 1058 1054 1055 1060
424 1 1058 1054 1055 1061
425 1 1059 1054 1055 1060
426 1 1059 1054 1055 1061
427 3 568 569 570 576
428 2 570 569 568 571
429 2 570 569 568 572
430 2 570 569 568 573
431 4 574 569 570 576
432 4 575 569 570 576
433 1 1030 1027 1028 1033
434 1 1030 1027 1028 1034
435 1 1031 1027 1028 1033
436 1 1031 1027 1028 1034
437 1 1032 1027 1028 1033
438 1 1032 1027 1028 1034
439 3 2125 2126 2127 2133
440 2 2127 2126 2125 2128
441 2 2127 2126 2125 2129
442 2 2127 2126 2125 2130
443 4 2131 2126 2127 2133
444 4 2132 2126 2127 2133
445 3 1189 1190 1191 1197
446 2 1191 1190 1189 1192
447 2 1191 1190 1189 1193
448 2 1191 1190 1189 1194
449 4 1195 1190 1191 1197
450 4 1196 1190 1191 1197
451 1 886 883 884 889
452 1 886 883 884 890
453 1 887 883 884 889
454 1 887 883 884 890
455 1 888 883 884 889
456 1 888 883 884 890
457 1 715 712 713 718
458 1 715 712 713 719
459 1 716 712 713 718
460 1 716 712 713 719
461 1 717 712 713 718
462 1 717 712 713 719
463 3 1594 1595 1596 1602
464 2 1596 1595 1594 1597
465 2 1596 1595 1594 1598
466 2 1596 1595 1594 1599
467 4 1600 1595 1596 1602
468 4 1601 1595 1596 1602
469 1 922 919 920 925
470 1 922 919 920 926
471 1 923 919 920 925
472 1 923 919 920 926
473 1 924 919 920 925
474 1 924 919 920 926
475 1 652 649 650 655
476 1 652 649 650 656
477 1 653 649 650 655
478 1 653 649 650 656
479 1 654 649 650 655
480 1 654 649 650 656
481 3 919 920 921 927
482 2 921 920 919 922
483 2 921 920 919 923
484 2 921 920 919 924
485 4 925 920 921 927
486 4 926 920 921 927
487 3 1522 1523 1524 1530
488 2 1524 1523 1522 1525
489 2 1524 1523 1522 1526
490 2 1524 1523 1522 1527
491 4 1528 1523 1524 1530
492 4 1529 1523 1524 1530
493 3 649 650 651 657
494 2 651 650 649 652
495 2 651 650 649 653
496 2 651 650 649 654
497 4 655 650 651 657
498 4 656 650 651 657
499 3 271 272 273 279
500 2 273 272 271 274
501 2 273 272 271 275
502 2 273 272 271 276
503 4 277 272 273 279
504 4 278 272 273 279
505 1 2128 2125 2126 2131
506 1 2128 2125 2126 2132
507 1 2129 2125 2126 2131
508 1 2129 2125 2126 2132
509 1 2130 2125 2126 2131
510 1 2130 2125 2126 2132
511 1 274 271 272 277
512 1 274 271 272 278
513 1 275 271 272 277
514 1 275 271 272 278
515 1 276 271 272 277
516 1 276 271 272 278
517 3 838 839 840 846
518 2 840 839 838 841
519 2 840 839 838 842
520 2 840 839 838 843
521 4 844 839 840 846
522 4 845 839 840 846
523 1 841 838 839 844
524 1 841 838 839 845
525 1 842 838 839 844
526 1 842 838 839 845
527 1 843 838 839 844
528 1 843 838 839 845
529 3 2161 2162 2163 2169
530 2 2163 2162 2161 2164
531 2 2163 2162 2161 2165
532 2 2163 2162 2161 2166
533 4 2167 2162 2163 2169
534 4 2168 2162 2163 2169
535 1 472 469 470 475
536 1 472 469 470 476
537 1 473 469 470 475
538 1 473 469 470 476
539 1 474 469 470 475
540 1 474 469 470 476
541 1 1102 1099 1100 1105
542 1 1102 1099 1100 1106
543 1 1103 1099 1100 1105
544 1 1103 1099 1100 1106
545 1 1104 1099 1100 1105
546 1 1104 1099 1100 1106
547 1 2164 2161 2162 2167
548 1 2164 2161 2162 2168
549 1 2165 2161 2162 2167
550 1 2165 2161 2162 2168
551 1 2166 2161 2162 2167
552 1 2166 2161 2162 2168
553 1 238 235 236 241
554 1 238 235 236 242
555 1 239 235 236 241
556 1 239 235 236 242
557 1 240 235 236 241
558 1 240 235 236 242
559 1 1156 1153 1154 1159
560 1 1156 1153 1154 1160
561 1 1157 1153 1154 1159
562 1 1157 1153 1154 1160
563 1 1158 1153 1154 1159
564 1 1158 1153 1154 1160
565 3 1153 1154 1155 1161
566 2 1155 1154 1153 1156
567 2 1155 1154 1153 1157
568 2 1155 1154 1153 1158
569 4 1159 1154 1155 1161
570 4 1160 1154 1155 1161
571 1 544 541 542 547
572 1 544 541 542 548
573 1 545 541 542 547
574 1 545 541 542 548
575 1 546 541 542 547
576 1 546 541 542 548
577 3 793 794 795 801
578 2 795 794 793 796
579 2 795 794 793 797
580 2 795 794 793 798
581 4 799 794 795 801
582 4 800 794 795 801
583 1 796 793 794 799
584 1 796 793 794 800
585 1 797 793 794 799
586 1 797 793 794 800
587 1 798 793 794 799
588 1 798 793 794 800
589 3 1486 1487 1488 1494
590 2 1488 1487 1486 1489
591 2 1488 1487 1486 1490
592 2 1488 1487 1486 1491
593 4 1492 1487 1488 1494
594 4 1493 1487 1488 1494
595 1 1489 1486 1487 1492
596 1 1489 1486 1487 1493
597 1 1490 1486 1487 1492
598 1 1490 1486 1487 1493
599 1 1491 1486 1487 1492
600 1 1491 1486 1487 1493
601 3 235 236 237 243
602 2 237 236 235 238
603 2 237 236 235 239
604 2 237 236 235 240
605 4 241 236 237 243
606 4 242 236 237 243
607 3 64 65 66 72
608 2 66 65 64 67
609 2 66 65 64 68
610 2 66 65 64 69
611 4 70 65 66 72
612 4 71 65 66 72
613 1 1471 1468 1469 1474
614 1 1471 1468 1469 1475
615 1 1472 1468 1469 1474
616 1 1472 1468 1469 1475
617 1 1473 1468 1469 1474
618 1 1473 1468 1469 1475
619 3 604 605 606 612
620 2 606 605 604 607
621 2 606 605 604 608
622 2 606 605 604 609
623 4 610 605 606 612
624 4 611 605 606 612
625 3 316 317 318 324
626 2 318 317 316 319
627 2 318 317 316 320
628 2 318 317 316 321
629 4 322 317 318 324
630 4 323 317 318 324
631 3 1099 1100 1101 1107
632 2 1101 1100 1099 1102
633 2 1101 1100 1099 1103
634 2 1101 1100 1099 1104
635 4 1105 1100 1101 1107
636 4 1106 1100 1101 1107
637 3 469 470 471 477
638 2 471 470 469 472
639 2 471 470 469 473
640 2 471 470 469 474
641 4 475 470 471 477
642 4 476 470 471 477
643 1 1165 1162 1163 1168
644 1 1165 1162 1163 1169
645 1 1166 1162 1163 1168
646 1 1166 1162 1163 1169
647 1 1167 1162 1163 1168
648 1 1167 1162 1163 1169
649 3 10 11 12 18
650 2 12 11 10 13
651 2 12 11 10 14
652 2 12 11 10 15
653 4 16 11 12 18
654 4 17 11 12 18
655 1 13 10 11 16
656 1 13 10 11 17
657 1 14 10 11 16
658 1 14 10 11 17
659 1 15 10 11 16
660 1 15 10 11 17
661 3 1162 1163 1164 1170
662 2 1164 1163 1162 1165
663 2 1164 1163 1162 1166
664 2 1164 1163 1162 1167
665 4 1168 1163 1164 1170
666 4 1169 1163 1164 1170
667 3 541 542 543 549
668 2 543 542 541 544
669 2 543 542 541 545
670 2 543 542 541 546
671 4 547 542 543 549
672 4 548 542 543 549
673 3 280 281 282 288
674 2 282 281 280 283
675 2 282 281 280 284
676 2 282 281 280 285
677 4 286 281 282 288
678 4 287 281 282 288
679 3 2053 2054 2055 2061
680 2 2055 2054 2053 2056
681 2 2055 2054 2053 2057
682 2 2055 2054 2053 2058
683 4 2059 2054 2055 2061
684 4 2060 2054 2055 2061
685 1 2218 2215 2216 2221
686 1 2218 2215 2216 2222
687 1 2219 2215 2216 2221
688 1 2219 2215 2216 2222
689 1 2220 2215 2216 2221
690 1 2220 2215 2216 2222
691 1 2056 2053 2054 2059
692 1 2056 2053 2054 2060
693 1 2057 2053 2054 2059
694 1 2057 2053 2054 2060
695 1 2058 2053 2054 2059
696 1 2058 2053 2054 2060
697 1 2002 1999 2000 2005
698 1 2002 1999 2000 2006
699 1 2003 1999 2000 2005
700 1 2003 1999 2000 2006
701 1 2004 1999 2000 2005
702 1 2004 1999 2000 2006
703 1 760 757 758 763
704 1 760 757 758 764
705 1 761 757 758 763
706 1 761 757 758 764
707 1 762 757 758 763
708 1 762 757 758 764
709 3 757 758 759 765
710 2 759 758 757 760
711 2 759 758 757 761
712 2 759 758 757 762
713 4 763 758 759 765
714 4 764 758 759 765
715 3 1549 1550 1551 1557
716 2 1551 1550 1549 1552
717 2 1551 1550 1549 1553
718 2 1551 1550 1549 1554
719 4 1555 1550 1551 1557
720 4 1556 1550 1551 1557
721 1 1552 1549 1550 1555
722 1 1552 1549 1550 1556
723 1 1553 1549 1550 1555
724 1 1553 1549 1550 1556
725 1 1554 1549 1550 1555
726 1 1554 1549 1550 1556
727 1 985 982 983 988
728 1 985 982 983 989
729 1 986 982 983 988
730 1 986 982 983 989
731 1 987 982 983 988
732 1 987 982 983 989
733 1 1498 1495 1496 1501
734 1 1498 1495 1496 1502
735 1 1499 1495 1496 1501
736 1 1499 1495 1496 1502
737 1 1500 1495 1496 1501
738 1 1500 1495 1496 1502
739 3 1180 1181 1182 1188
740 2 1182 1181 1180 1183
741 2 1182 1181 1180 1184
742 2 1182 1181 1180 1185
743 4 1186 1181 1182 1188
744 4 1187 1181 1182 1188
745 3 514 515 516 522
746 2 516 515 514 517
747 2 516 515 514 518
748 2 516 515 514 519
749 4 520 515 516 522
750 4 521 515 516 522
751 1 517 514 515 520
752 1 517 514 515 521
753 1 518 514 515 520
754 1 518 514 515 521
755 1 519 514 515 520
756 1 519 514 515 521
757 1 1579 1576 1577 1582
758 1 1579 1576 1577 1583
759 1 1580 1576 1577 1582
760 1 1580 1576 1577 1583
761 1 1581 1576 1577 1582
762 1 1581 1576 1577 1583
763 3 2089 2090 2091 2097
764 2 2091 2090 2089 2092
765 2 2091 2090 2089 2093
766 2 2091 2090 2089 2094
767 4 2095 2090 2091 2097
768 4 2096 2090 2091 2097
769 1 454 451 452 457
770 1 454 451 452 458
771 1 455 451 452 457
772 1 455 451 452 458
773 1 456 451 452 457
774 1 456 451 452 458
775 3 1279 1280 1281 1287
776 2 1281 1280 1279 1282
777 2 1281 1280 1279 1283
778 2 1281 1280 1279 1284
779 4 1285 1280 1281 1287
780 4 1286 1280 1281 1287
781 1 265 262 263 268
782 1 265 262 263 269
783 1 266 262 263 268
784 1 266 262 263 269
785 1 267 262 263 268
786 1 267 262 263 269
787 3 937 938 939 945
788 2 939 938 937 940
789 2 939 938 937 941
790 2 939 938 937 942
791 4 943 938 939 945
792 4 944 938 939 945
793 1 1282 1279 1280 1285
794 1 1282 1279 1280 1286
795 1 1283 1279 1280 1285
796 1 1283 1279 1280 1286
797 1 1284 1279 1280 1285
798 1 1284 1279 1280 1286
799 1 2092 2089 2090 2095
800 1 2092 2089 2090 2096
801 1 2093 2089 2090 2095
802 1 2093 2089 2090 2096
803 1 2094 2089 2090 2095
804 1 2094 2089 2090 2096
805 1 1183 1180 1181 1186
806 1 1183 1180 1181 1187
807 1 1184 1180 1181 1186
808 1 1184 1180 1181 1187
809 1 1185 1180 1181 1186
810 1 1185 1180 1181 1187
811 1 301 298 299 304
812 1 301 298 299 305
813 1 302 298 299 304
814 1 302 298 299 305
815 1 303 298 299 304
816 1 303 298 299 305
817 1 1642 1639 1640 1645
818 1 1642 1639 1640 1646
819 1 1643 1639 1640 1645
820 1 1643 1639 1640 1646
821 1 1644 1639 1640 1645
822 1 1644 1639 1640 1646
823 3 1639 1640 1641 1647
824 2 1641 1640 1639 1642
825 2 1641 1640 1639 1643
826 2 1641 1640 1639 1644
827 4 1645 1640 1641 1647
828 4 1646 1640 1641 1647
829 1 508 505 506 511
830 1 508 505 506 512
831 1 509 505 506 511
832 1 509 505 506 512
833 1 510 505 506 511
834 1 510 505 506 512
835 1 1840 1837 1838 1843
836 1 1840 1837 1838 1844
837 1 1841 1837 1838 1843
838 1 1841 1837 1838 1844
839 1 1842 1837 1838 1843
840 1 1842 1837 1838 1844
841 3 1837 1838 1839 1845
842 2 1839 1838 1837 1840
843 2 1839 1838 1837 1841
844 2 1839 1838 1837 1842
845 4 1843 1838 1839 1845
846 4 1844 1838 1839 1845
847 1 463 460 461 466
848 1 463 460 461 467
849 1 464 460 461 466
850 1 464 460 461 467
851 1 465 460 461 466
852 1 465 460 461 467
853 1 940 937 938 943
854 1 940 937 938 944
855 1 941 937 938 943
856 1 941 937 938 944
857 1 942 937 938 943
858 1 942 937 938 944
859 1 1273 1270 1271 1276
860 1 1273 1270 1271 1277
861 1 1274 1270 1271 1276
862 1 1274 1270 1271 1277
863 1 1275 1270 1271 1276
864 1 1275 1270 1271 1277
865 3 2116 2117 2118 2124
866 2 2118 2117 2116 2119
867 2 2118 2117 2116 2120
868 2 2118 2117 2116 2121
869 4 2122 2117 2118 2124
870 4 2123 2117 2118 2124
871 3 1324 1325 1326 1332
872 2 1326 1325 1324 1327
873 2 1326 1325 1324 1328
874 2 1326 1325 1324 1329
875 4 1330 1325 1326 1332
876 4 1331 1325 1326 1332
877 1 1327 1324 1325 1330
878 1 1327 1324 1325 1331
879 1 1328 1324 1325 1330
880 1 1328 1324 1325 1331
881 1 1329 1324 1325 1330
882 1 1329 1324 1325 1331
883 1 2119 2116 2117 2122
884 1 2119 2116 2117 2123
885 1 2120 2116 2117 2122
886 1 2120 2116 2117 2123
887 1 2121 2116 2117 2122
888 1 2121 2116 2117 2123
889 3 1270 1271 1272 1278
890 2 1272 1271 1270 1273
891 2 1272 1271 1270 1274
892 2 1272 1271 1270 1275
893 4 1276 1271 1272 1278
894 4 1277 1271 1272 1278
895 1 1246 1243 1244 1249
896 1 1246 1243 1244 1250
897 1 1247 1243 1244 1249
898 1 1247 1243 1244 1250
899 1 1248 1243 1244 1249
900 1 1248 1243 1244 1250
901 3 1126 1127 1128 1134
902 2 1128 1127 1126 1129
903 2 1128 1127 1126 1130
904 2 1128 1127 1126 1131
905 4 1132 1127 1128 1134
906 4 1133 1127 1128 1134
907 1 1309 1306 1307 1312
908 1 1309 1306 1307 1313
909 1 1310 1306 1307 1312
910 1 1310 1306 1307 1313
911 1 1311 1306 1307 1312
912 1 1311 1306 1307 1313
913 3 1576 1577 1578 1584
914 2 1578 1577 1576 1579
915 2 1578 1577 1576 1580
916 2 1578 1577 1576 1581
917 4 1582 1577 1578 1584
918 4 1583 1577 1578 1584
919 1 1291 1288 1289 1294
920 1 1291 1288 1289 1295
921 1 1292 1288 1289 1294
922 1 1292 1288 1289 1295
923 1 1293 1288 1289 1294
924 1 1293 1288 1289 1295
925 3 262 263 264 270
926 2 264 263 262 265
927 2 264 263 262 266
928 2 264 263 262 267
929 4 268 263 264 270
930 4 269 263 264 270
931 1 1669 1666 1667 1672
932 1 1669 1666 1667 1673
933 1 1670 1666 1667 1672
934 1 1670 1666 1667 1673
935 1 1671 1666 1667 1672
936 1 1671 1666 1667 1673
937 3 1405 1406 1407 1413
938 2 1407 1406 1405 1408
939 2 1407 1406 1405 1409
940 2 1407 1406 1405 1410
941 4 1411 1406 1407 1413
942 4 1412 1406 1407 1413
943 1 490 487 488 493
944 1 490 487 488 494
945 1 491 487 488 493
946 1 491 487 488 494
947 1 492 487 488 493
948 1 492 487 488 494
949 3 1288 1289 1290 1296
950 2 1290 1289 1288 1291
951 2 1290 1289 1288 1292
952 2 1290 1289 1288 1293
953 4 1294 1289 1290 1296
954 4 1295 1289 1290 1296
955 1 526 523 524 529
956 1 526 523 524 530
957 1 527 523 524 529
958 1 527 523 524 530
959 1 528 523 524 529
960 1 528 523 524 530
961 3 505 506 507 513
962 2 507 506 505 508
963 2 507 506 505 509
964 2 507 506 505 510
965 4 511 506 507 513
966 4 512 506 507 513
967 3 523 524 525 531
968 2 525 524 523 526
969 2 525 524 523 527
970 2 525 524 523 528
971 4 529 524 525 531
972 4 530 524 525 531
973 3 487 488 489 495
974 2 489 488 487 490
975 2 489 488 487 491
976 2 489 488 487 492
977 4 493 488 489 495
978 4 494 488 489 495
979 3 1666 1667 1668 1674
980 2 1668 1667 1666 1669
981 2 1668 1667 1666 1670
982 2 1668 1667 1666 1671
983 4 1672 1667 1668 1674
984 4 1673 1667 1668 1674
985 1 1795 1792 1793 1798
986 1 1795 1792 1793 1799
987 1 1796 1792 1793 1798
988 1 1796 1792 1793 1799
989 1 1797 1792 1793 1798
990 1 1797 1792 1793 1799
991 1 697 694 695 700
992 1 697 694 695 701
993 1 698 694 695 700
994 1 698 694 695 701
995 1 699 694 695 700
996 1 699 694 695 701
997 3 694 695 696 702
998 2 696 695 694 697
999 2 696 695 694 698
1000 2 696 695 694 699
1001 4 700 695 696 702
1002 4 701 695 696 702
1003 3 55 56 57 63
1004 2 57 56 55 58
1005 2 57 56 55 59
1006 2 57 56 55 60
1007 4 61 56 57 63
1008 4 62 56 57 63
1009 3 1756 1757 1758 1764
1010 2 1758 1757 1756 1759
1011 2 1758 1757 1756 1760
1012 2 1758 1757 1756 1761
1013 4 1762 1757 1758 1764
1014 4 1763 1757 1758 1764
1015 1 58 55 56 61
1016 1 58 55 56 62
1017 1 59 55 56 61
1018 1 59 55 56 62
1019 1 60 55 56 61
1020 1 60 55 56 62
1021 3 1198 1199 1200 1206
1022 2 1200 1199 1198 1201
1023 2 1200 1199 1198 1202
1024 2 1200 1199 1198 1203
1025 4 1204 1199 1200 1206
1026 4 1205 1199 1200 1206
1027 1 868 865 866 871
1028 1 868 865 866 872
1029 1 869 865 866 871
1030 1 869 865 866 872
1031 1 870 865 866 871
1032 1 870 865 866 872
1033 3 406 407 408 414
1034 2 408 407 406 409
1035 2 408 407 406 410
1036 2 408 407 406 411
1037 4 412 407 408 414
1038 4 413 407 408 414
1039 3 1351 1352 1353 1359
1040 2 1353 1352 1351 1354
1041 2 1353 1352 1351 1355
1042 2 1353 1352 1351 1356
1043 4 1357 1352 1353 1359
1044 4 1358 1352 1353 1359
1045 1 409 406 407 412
1046 1 409 406 407 413
1047 1 410 406 407 412
1048 1 410 406 407 413
1049 1 411 406 407 412
1050 1 411 406 407 413
1051 1 1048 1045 1046 1051
1052 1 1048 1045 1046 1052
1053 1 1049 1045 1046 1051
1054 1 1049 1045 1046 1052
1055 1 1050 1045 1046 1051
1056 1 1050 1045 1046 1052
1057 1 2173 2170 2171 2176
1058 1 2173 2170 2171 2177
1059 1 2174 2170 2171 2176
1060 1 2174 2170 2171 2177
1061 1 2175 2170 2171 2176
1062 1 2175 2170 2171 2177
1063 3 2170 2171 2172 2178
1064 2 2172 2171 2170 2173
1065 2 2172 2171 2170 2174
1066 2 2172 2171 2170 2175
1067 4 2176 2171 2172 2178
1068 4 2177 2171 2172 2178
1069 3 730 731 732 738
1070 2 732 731 730 733
1071 2 732 731 730 734
1072 2 732 731 730 735
1073 4 736 731 732 738
1074 4 737 731 732 738
1075 1 733 730 731 736
1076 1 733 730 731 737
1077 1 734 730 731 736
1078 1 734 730 731 737
1079 1 735 730 731 736
1080 1 735 730 731 737
1081 1 850 847 848 853
1082 1 850 847 848 854
1083 1 851 847 848 853
1084 1 851 847 848 854
1085 1 852 847 848 853
1086 1 852 847 848 854
1087 3 847 848 849 855
1088 2 849 848 847 850
1089 2 849 848 847 851
1090 2 849 848 847 852
1091 4 853 848 849 855
1092 4 854 848 849 855
1093 3 865 866 867 873
1094 2 867 866 865 868
1095 2 867 866 865 869
1096 2 867 866 865 870
1097 4 871 866 867 873
1098 4 872 866 867 873
1099 3 1558 1559 1560 1566
1100 2 1560 1559 1558 1561
1101 2 1560 1559 1558 1562
1102 2 1560 1559 1558 1563
1103 4 1564 1559 1560 1566
1104 4 1565 1559 1560 1566
1105 1 1336 1333 1334 1339
1106 1 1336 1333 1334 1340
1107 1 1337 1333 1334 1339
1108 1 1337 1333 1334 1340
1109 1 1338 1333 1334 1339
1110 1 1338 1333 1334 1340
1111 1 1876 1873 1874 1879
1112 1 1876 1873 1874 1880
1113 1 1877 1873 1874 1879
1114 1 1877 1873 1874 1880
1115 1 1878 1873 1874 1879
1116 1 1878 1873 1874 1880
1117 1 1759 1756 1757 1762
1118 1 1759 1756 1757 1763
1119 1 1760 1756 1757 1762
1120 1 1760 1756 1757 1763
1121 1 1761 1756 1757 1762
1122 1 1761 1756 1757 1763
1123 3 1396 1397 1398 1404
1124 2 1398 1397 1396 1399
1125 2 1398 1397 1396 1400
1126 2 1398 1397 1396 1401
1127 4 1402 1397 1398 1404
1128 4 1403 1397 1398 1404
1129 1 1435 1432 1433 1438
1130 1 1435 1432 1433 1439
1131 1 1436 1432 1433 1438
1132 1 1436 1432 1433 1439
1133 1 1437 1432 1433 1438
1134 1 1437 1432 1433 1439
1135 1 643 640 641 646
1136 1 643 640 641 647
1137 1 644 640 641 646
1138 1 644 640 641 647
1139 1 645 640 641 646
1140 1 645 640 641 647
1141 3 1432 1433 1434 1440
1142 2 1434 1433 1432 1435
1143 2 1434 1433 1432 1436
1144 2 1434 1433 1432 1437
1145 4 1438 1433 1434 1440
1146 4 1439 1433 1434 1440
1147 3 640 641 642 648
1148 2 642 641 640 643
1149 2 642 641 640 644
1150 2 642 641 640 645
1151 4 646 641 642 648
1152 4 647 641 642 648
1153 1 1354 1351 1352 1357
1154 1 1354 1351 1352 1358
1155 1 1355 1351 1352 1357
1156 1 1355 1351 1352 1358
1157 1 1356 1351 1352 1357
1158 1 1356 1351 1352 1358
1159 1 1399 1396 1397 1402
1160 1 1399 1396 1397 1403
1161 1 1400 1396 1397 1402
1162 1 1400 1396 1397 1403
1163 1 1401 1396 1397 1402
1164 1 1401 1396 1397 1403
1165 1 1345 1342 1343 1348
1166 1 1345 1342 1343 1349
1167 1 1346 1342 1343 1348
1168 1 1346 1342 1343 1349
1169 1 1347 1342 1343 1348
1170 1 1347 1342 1343 1349
1171 1 211 208 209 214
1172 1 211 208 209 215
1173 1 212 208 209 214
1174 1 212 208 209 215
1175 1 213 208 209 214
1176 1 213 208 209 215
1177 3 460 461 462 468
1178 2 462 461 460 463
1179 2 462 461 460 464
1180 2 462 461 460 465
1181 4 466 461 462 468
1182 4 467 461 462 468
1183 3 1342 1343 1344 1350
1184 2 1344 1343 1342 1345
1185 2 1344 1343 1342 1346
1186 2 1344 1343 1342 1347
1187 4 1348 1343 1344 1350
1188 4 1349 1343 1344 1350
1189 1 2074 2071 2072 2077
1190 1 2074 2071 2072 2078
1191 1 2075 2071 2072 2077
1192 1 2075 2071 2072 2078
1193 1 2076 2071 2072 2077
1194 1 2076 2071 2072 2078
1195 3 208 209 210 216
1196 2 210 209 208 211
1197 2 210 209 208 212
1198 2 210 209 208 213
1199 4 214 209 210 216
1200 4 215 209 210 216
1201 1 1822 1819 1820 1825
1202 1 1822 1819 1820 1826
1203 1 1823 1819 1820 1825
1204 1 1823 1819 1820 1826
1205 1 1824 1819 1820 1825
1206 1 1824 1819 1820 1826
1207 3 307 308 309 315
1208 2 309 308 307 310
1209 2 309 308 307 311
1210 2 309 308 307 312
1211 4 313 308 309 315
1212 4 314 308 309 315
1213 3 1792 1793 1794 1800
1214 2 1794 1793 1792 1795
1215 2 1794 1793 1792 1796
1216 2 1794 1793 1792 1797
1217 4 1798 1793 1794 1800
1218 4 1799 1793 1794 1800
1219 1 1201 1198 1199 1204
1220 1 1201 1198 1199 1205
1221 1 1202 1198 1199 1204
1222 1 1202 1198 1199 1205
1223 1 1203 1198 1199 1204
1224 1 1203 1198 1199 1205
1225 3 1045 1046 1047 1053
1226 2 1047 1046 1045 1048
1227 2 1047 1046 1045 1049
1228 2 1047 1046 1045 1050
1229 4 1051 1046 1047 1053
1230 4 1052 1046 1047 1053
1231 1 1561 1558 1559 1564
1232 1 1561 1558 1559 1565
1233 1 1562 1558 1559 1564
1234 1 1562 1558 1559 1565
1235 1 1563 1558 1559 1564
1236 1 1563 1558 1559 1565
1237 3 1873 1874 1875 1881
1238 2 1875 1874 1873 1876
1239 2 1875 1874 1873 1877
1240 2 1875 1874 1873 1878
1241 4 1879 1874 1875 1881
1242 4 1880 1874 1875 1881
1243 3 244 245 246 252
1244 2 246 245 244 247
1245 2 246 245 244 248
1246 2 246 245 244 249
1247 4 250 245 246 252
1248 4 251 245 246 252
1249 1 247 244 245 250
1250 1 247 244 245 251
1251 1 248 244 245 250
1252 1 248 244 245 251
1253 1 249 244 245 250
1254 1 249 244 245 251
1255 1 1858 1855 1856 1861
1256 1 1858 1855 1856 1862
1257 1 1859 1855 1856 1861
1258 1 1859 1855 1856 1862
1259 1 1860 1855 1856 1861
1260 1 1860 1855 1856 1862
1261 3 2152 2153 2154 2160
1262 2 2154 2153 2152 2155
1263 2 2154 2153 2152 2156
1264 2 2154 2153 2152 2157
1265 4 2158 2153 2154 2160
1266 4 2159 2153 2154 2160
1267 3 1927 1928 1929 1935
1268 2 1929 1928 1927 1930
1269 2 1929 1928 1927 1931
1270 2 1929 1928 1927 1932
1271 4 1933 1928 1929 1935
1272 4 1934 1928 1929 1935
1273 1 1930 1927 1928 1933
1274 1 1930 1927 1928 1934
1275 1 1931 1927 1928 1933
1276 1 1931 1927 1928 1934
1277 1 1932 1927 1928 1933
1278 1 1932 1927 1928 1934
1279 3 2017 2018 2019 2025
1280 2 2019 2018 2017 2020
1281 2 2019 2018 2017 2021
1282 2 2019 2018 2017 2022
1283 4 2023 2018 2019 2025
1284 4 2024 2018 2019 2025
1285 3 1297 1298 1299 1305
1286 2 1299 1298 1297 1300
1287 2 1299 1298 1297 1301
1288 2 1299 1298 1297 1302
1289 4 1303 1298 1299 1305
1290 4 1304 1298 1299 1305
1291 1 859 856 857 862
1292 1 859 856 857 863
1293 1 860 856 857 862
1294 1 860 856 857 863
1295 1 861 856 857 862
1296 1 861 856 857 863
1297 1 1300 1297 1298 1303
1298 1 1300 1297 1298 1304
1299 1 1301 1297 1298 1303
1300 1 1301 1297 1298 1304
1301 1 1302 1297 1298 1303
1302 1 1302 1297 1298 1304
1303 3 1855 1856 1857 1863
1304 2 1857 1856 1855 1858
1305 2 1857 1856 1855 1859
1306 2 1857 1856 1855 1860
1307 4 1861 1856 1857 1863
1308 4 1862 1856 1857 1863
1309 3 2215 2216 2217 2223
1310 2 2217 2216 2215 2218
1311 2 2217 2216 2215 2219
1312 2 2217 2216 2215 2220
1313 4 2221 2216 2217 2223
1314 4 2222 2216 2217 2223
1315 3 1630 1631 1632 1638
1316 2 1632 1631 1630 1633
1317 2 1632 1631 1630 1634
1318 2 1632 1631 1630 1635
1319 4 1636 1631 1632 1638
1320 4 1637 1631 1632 1638
1321 1 283 280 281 286
1322 1 283 280 281 287
1323 1 284 280 281 286
1324 1 284 280 281 287
1325 1 285 280 281 286
1326 1 285 280 281 287
1327 1 85 82 83 88
1328 1 85 82 83 89
1329 1 86 82 83 88
1330 1 86 82 83 89
1331 1 87 82 83 88
1332 1 87 82 83 89
1333 3 802 803 804 810
1334 2 804 803 802 805
1335 2 804 803 802 806
1336 2 804 803 802 807
1337 4 808 803 804 810
1338 4 809 803 804 810
1339 1 805 802 803 808
1340 1 805 802 803 809
1341 1 806 802 803 808
1342 1 806 802 803 809
1343 1 807 802 803 808
1344 1 807 802 803 809
1345 3 172 173 174 180
1346 2 174 173 172 175
1347 2 174 173 172 176
1348 2 174 173 172 177
1349 4 178 173 174 180
1350 4 179 173 174 180
1351 1 175 172 173 178
1352 1 175 172 173 179
1353 1 176 172 173 178
1354 1 176 172 173 179
1355 1 177 172 173 178
1356 1 177 172 173 179
1357 3 82 83 84 90
1358 2 84 83 82 85
1359 2 84 83 82 86
1360 2 84 83 82 87
1361 4 88 83 84 90
1362 4 89 83 84 90
1363 1 1255 1252 1253 1258
1364 1 1255 1252 1253 1259
1365 1 1256 1252 1253 1258
1366 1 1256 1252 1253 1259
1367 1 1257 1252 1253 1258
1368 1 1257 1252 1253 1259
1369 3 1252 1253 1254 1260
1370 2 1254 1253 1252 1255
1371 2 1254 1253 1252 1256
1372 2 1254 1253 1252 1257
1373 4 1258 1253 1254 1260
1374 4 1259 1253 1254 1260
1375 1 2200 2197 2198 2203
1376 1 2200 2197 2198 2204
1377 1 2201 2197 2198 2203
1378 1 2201 2197 2198 2204
1379 1 2202 2197 2198 2203
1380 1 2202 2197 2198 2204
1381 1 1237 1234 1235 1240
1382 1 1237 1234 1235 1241
1383 1 1238 1234 1235 1240
1384 1 1238 1234 1235 1241
1385 1 1239 1234 1235 1240
1386 1 1239 1234 1235 1241
1387 3 1972 1973 1974 1980
1388 2 1974 1973 1972 1975
1389 2 1974 1973 1972 1976
1390 2 1974 1973 1972 1977
1391 4 1978 1973 1974 1980
1392 4 1979 1973 1974 1980
1393 1 1777 1774 1775 1780
1394 1 1777 1774 1775 1781
1395 1 1778 1774 1775 1780
1396 1 1778 1774 1775 1781
1397 1 1779 1774 1775 1780
1398 1 1779 1774 1775 1781
1399 3 856 857 858 864
1400 2 858 857 856 859
1401 2 858 857 856 860
1402 2 858 857 856 861
1403 4 862 857 858 864
1404 4 863 857 858 864
1405 3 1234 1235 1236 1242
1406 2 1236 1235 1234 1237
1407 2 1236 1235 1234 1238
1408 2 1236 1235 1234 1239
1409 4 1240 1235 1236 1242
1410 4 1241 1235 1236 1242
1411 1 1732 1729 1730 1735
1412 1 1732 1729 1730 1736
1413 1 1733 1729 1730 1735
1414 1 1733 1729 1730 1736
1415 1 1734 1729 1730 1735
1416 1 1734 1729 1730 1736
1417 1 1921 1918 1919 1924
1418 1 1921 1918 1919 1925
1419 1 1922 1918 1919 1924
1420 1 1922 1918 1919 1925
1421 1 1923 1918 1919 1924
1422 1 1923 1918 1919 1925
1423 3 1774 1775 1776 1782
1424 2 1776 1775 1774 1777
1425 2 1776 1775 1774 1778
1426 2 1776 1775 1774 1779
1427 4 1780 1775 1776 1782
1428 4 1781 1775 1776 1782
1429 1 112 109 110 115
1430 1 112 109 110 116
1431 1 113 109 110 115
1432 1 113 109 110 116
1433 1 114 109 110 115
1434 1 114 109 110 116
1435 3 109 110 111 117
1436 2 111 110 109 112
1437 2 111 110 109 113
1438 2 111 110 109 114
1439 4 115 110 111 117
1440 4 116 110 111 117
1441 1 2020 2017 2018 2023
1442 1 2020 2017 2018 2024
1443 1 2021 2017 2018 2023
1444 1 2021 2017 2018 2024
1445 1 2022 2017 2018 2023
1446 1 2022 2017 2018 2024
1447 3 1918 1919 1920 1926
1448 2 1920 1919 1918 1921
1449 2 1920 1919 1918 1922
1450 2 1920 1919 1918 1923
1451 4 1924 1919 1920 1926
1452 4 1925 1919 1920 1926
1453 1 553 550 551 556
1454 1 553 550 551 557
1455 1 554 550 551 556
1456 1 554 550 551 557
1457 1 555 550 551 556
1458 1 555 550 551 557
1459 3 1729 1730 1731 1737
1460 2 1731 1730 1729 1732
1461 2 1731 1730 1729 1733
1462 2 1731 1730 1729 1734
1463 4 1735 1730 1731 1737
1464 4 1736 1730 1731 1737
1465 3 1306 1307 1308 1314
1466 2 1308 1307 1306 1309
1467 2 1308 1307 1306 1310
1468 2 1308 1307 1306 1311
1469 4 1312 1307 1308 1314
1470 4 1313 1307 1308 1314
1471 3 550 551 552 558
1472 2 552 551 550 553
1473 2 552 551 550 554
1474 2 552 551 550 555
1475 4 556 551 552 558
1476 4 557 551 552 558
1477 1 1408 1405 1406 1411
1478 1 1408 1405 1406 1412
1479 1 1409 1405 1406 1411
1480 1 1409 1405 1406 1412
1481 1 1410 1405 1406 1411
1482 1 1410 1405 1406 1412
1483 3 2026 2027 2028 2034
1484 2 2028 2027 2026 2029
1485 2 2028 2027 2026 2030
1486 2 2028 2027 2026 2031
1487 4 2032 2027 2028 2034
1488 4 2033 2027 2028 2034
1489 3 1999 2000 2001 2007
1490 2 2001 2000 1999 2002
1491 2 2001 2000 1999 2003
1492 2 2001 2000 1999 2004
1493 4 2005 2000 2001 2007
1494 4 2006 2000 2001 2007
1495 3 1468 1469 1470 1476
1496 2 1470 1469 1468 1471
1497 2 1470 1469 1468 1472
1498 2 1470 1469 1468 1473
1499 4 1474 1469 1470 1476
1500 4 1475 1469 1470 1476
1501 1 2155 2152 2153 2158
1502 1 2155 2152 2153 2159
1503 1 2156 2152 2153 2158
1504 1 2156 2152 2153 2159
1505 1 2157 2152 2153 2158
1506 1 2157 2152 2153 2159
1507 1 2029 2026 2027 2032
1508 1 2029 2026 2027 2033
1509 1 2030 2026 2027 2032
1510 1 2030 2026 2027 2033
1511 1 2031 2026 2027 2032
1512 1 2031 2026 2027 2033
1513 1 1633 1630 1631 1636
1514 1 1633 1630 1631 1637
1515 1 1634 1630 1631 1636
1516 1 1634 1630 1631 1637
1517 1 1635 1630 1631 1636
1518 1 1635 1630 1631 1637
1519 3 2197 2198 2199 2205
1520 2 2199 2198 2197 2200
1521 2 2199 2198 2197 2201
1522 2 2199 2198 2197 2202
1523 4 2203 2198 2199 2205
1524 4 2204 2198 2199 2205
1525 3 748 749 750 756
1526 2 750 749 748 751
1527 2 750 749 748 752
1528 2 750 749 748 753
1529 4 754 749 750 756
1530 4 755 749 750 756
1531 1 1147 1144 1145 1150
1532 1 1147 1144 1145 1151
1533 1 1148 1144 1145 1150
1534 1 1148 1144 1145 1151
1535 1 1149 1144 1145 1150
1536 1 1149 1144 1145 1151
1537 3 559 560 561 567
1538 2 561 560 559 562
1539 2 561 560 559 563
1540 2 561 560 559 564
1541 4 565 560 561 567
1542 4 566 560 561 567
1543 3 1144 1145 1146 1152
1544 2 1146 1145 1144 1147
1545 2 1146 1145 1144 1148
1546 2 1146 1145 1144 1149
1547 4 1150 1145 1146 1152
1548 4 1151 1145 1146 1152
1549 1 562 559 560 565
1550 1 562 559 560 566
1551 1 563 559 560 565
1552 1 563 559 560 566
1553 1 564 559 560 565
1554 1 564 559 560 566
1555 3 2224 2225 2226 2232
1556 2 2226 2225 2224 2227
1557 2 2226 2225 2224 2228
1558 2 2226 2225 2224 2229
1559 4 2230 2225 2226 2232
1560 4 2231 2225 2226 2232
1561 3 1981 1982 1983 1989
1562 2 1983 1982 1981 1984
1563 2 1983 1982 1981 1985
1564 2 1983 1982 1981 1986
1565 4 1987 1982 1983 1989
1566 4 1988 1982 1983 1989
1567 3 829 830 831 837
1568 2 831 830 829 832
1569 2 831 830 829 833
1570 2 831 830 829 834
1571 4 835 830 831 837
1572 4 836 830 831 837
1573 3 784 785 786 792
1574 2 786 785 784 787
1575 2 786 785 784 788
1576 2 786 785 784 789
1577 4 790 785 786 792
1578 4 791 785 786 792
1579 3 1513 1514 1515 1521
1580 2 1515 1514 1513 1516
1581 2 1515 1514 1513 1517
1582 2 1515 1514 1513 1518
1583 4 1519 1514 1515 1521
1584 4 1520 1514 1515 1521
1585 1 1516 1513 1514 1519
1586 1 1516 1513 1514 1520
1587 1 1517 1513 1514 1519
1588 1 1517 1513 1514 1520
1589 1 1518 1513 1514 1519
1590 1 1518 1513 1514 1520
1591 1 661 658 659 664
1592 1 661 658 659 665
1593 1 662 658 659 664
1594 1 662 658 659 665
1595 1 663 658 659 664
1596 1 663 658 659 665
1597 3 2080 2081 2082 2088
1598 2 2082 2081 2080 2083
1599 2 2082 2081 2080 2084
1600 2 2082 2081 2080 2085
1601 4 2086 2081 2082 2088
1602 4 2087 2081 2082 2088
1603 3 397 398 399 405
1604 2 399 398 397 400
1605 2 399 398 397 401
1606 2 399 398 397 402
1607 4 403 398 399 405
1608 4 404 398 399 405
1609 1 400 397 398 403
1610 1 400 397 398 404
1611 1 401 397 398 403
1612 1 401 397 398 404
1613 1 402 397 398 403
1614 1 402 397 398 404
1615 3 1693 1694 1695 1701
1616 2 1695 1694 1693 1696
1617 2 1695 1694 1693 1697
1618 2 1695 1694 1693 1698
1619 4 1699 1694 1695 1701
1620 4 1700 1694 1695 1701
1621 1 625 622 623 628
1622 1 625 622 623 629
1623 1 626 622 623 628
1624 1 626 622 623 629
1625 1 627 622 623 628
1626 1 627 622 623 629
1627 1 1894 1891 1892 1897
1628 1 1894 1891 1892 1898
1629 1 1895 1891 1892 1897
1630 1 1895 1891 1892 1898
1631 1 1896 1891 1892 1897
1632 1 1896 1891 1892 1898
1633 1 832 829 830 835
1634 1 832 829 830 836
1635 1 833 829 830 835
1636 1 833 829 830 836
1637 1 834 829 830 835
1638 1 834 829 830 836
1639 3 1864 1865 1866 1872
1640 2 1866 1865 1864 1867
1641 2 1866 1865 1864 1868
1642 2 1866 1865 1864 1869
1643 4 1870 1865 1866 1872
1644 4 1871 1865 1866 1872
1645 3 622 623 624 630
1646 2 624 623 622 625
1647 2 624 623 622 626
1648 2 624 623 622 627
1649 4 628 623 624 630
1650 4 629 623 624 630
1651 3 775 776 777 783
1652 2 777 776 775 778
1653 2 777 776 775 779
1654 2 777 776 775 780
1655 4 781 776 777 783
1656 4 782 776 777 783
1657 3 946 947 948 954
1658 2 948 947 946 949
1659 2 948 947 946 950
1660 2 948 947 946 951
1661 4 952 947 948 954
1662 4 953 947 948 954
1663 3 1747 1748 1749 1755
1664 2 1749 1748 1747 1750
1665 2 1749 1748 1747 1751
1666 2 1749 1748 1747 1752
1667 4 1753 1748 1749 1755
1668 4 1754 1748 1749 1755
1669 1 1831 1828 1829 1834
1670 1 1831 1828 1829 1835
1671 1 1832 1828 1829 1834
1672 1 1832 1828 1829 1835
1673 1 1833 1828 1829 1834
1674 1 1833 1828 1829 1835
1675 3 2242 2243 2244 2250
1676 2 2244 2243 2242 2245
1677 2 2244 2243 2242 2246
1678 2 2244 2243 2242 2247
1679 4 2248 2243 2244 2250
1680 4 2249 2243 2244 2250
1681 3 73 74 75 81
1682 2 75 74 73 76
1683 2 75 74 73 77
1684 2 75 74 73 78
1685 4 79 74 75 81
1686 4 80 74 75 81
1687 1 1750 1747 1748 1753
1688 1 1750 1747 1748 1754
1689 1 1751 1747 1748 1753
1690 1 1751 1747 1748 1754
1691 1 1752 1747 1748 1753
1692 1 1752 1747 1748 1754
1693 1 76 73 74 79
1694 1 76 73 74 80
1695 1 77 73 74 79
1696 1 77 73 74 80
1697 1 78 73 74 79
1698 1 78 73 74 80
1699 3 1828 1829 1830 1836
1700 2 1830 1829 1828 1831
1701 2 1830 1829 1828 1832
1702 2 1830 1829 1828 1833
1703 4 1834 1829 1830 1836
1704 4 1835 1829 1830 1836
1705 1 1138 1135 1136 1141
1706 1 1138 1135 1136 1142
1707 1 1139 1135 1136 1141
1708 1 1139 1135 1136 1142
1709 1 1140 1135 1136 1141
1710 1 1140 1135 1136 1142
1711 3 370 371 372 378
1712 2 372 371 370 373
1713 2 372 371 370 374
1714 2 372 371 370 375
1715 4 376 371 372 378
1716 4 377 371 372 378
1717 3 1135 1136 1137 1143
1718 2 1137 1136 1135 1138
1719 2 1137 1136 1135 1139
1720 2 1137 1136 1135 1140
1721 4 1141 1136 1137 1143
1722 4 1142 1136 1137 1143
1723 3 658 659 660 666
1724 2 660 659 658 661
1725 2 660 659 658 662
1726 2 660 659 658 663
1727 4 664 659 660 666
1728 4 665 659 660 666
1729 1 2083 2080 2081 2086
1730 1 2083 2080 2081 2087
1731 1 2084 2080 2081 2086
1732 1 2084 2080 2081 2087
1733 1 2085 2080 2081 2086
1734 1 2085 2080 2081 2087
1735 1 778 775 776 781
1736 1 778 775 776 782
1737 1 779 775 776 781
1738 1 779 775 776 782
1739 1 780 775 776 781
1740 1 780 775 776 782
1741 1 346 343 344 349
1742 1 346 343 344 350
1743 1 347 343 344 349
1744 1 347 343 344 350
1745 1 348 343 344 349
1746 1 348 343 344 350
1747 3 1108 1109 1110 1116
1748 2 1110 1109 1108 1111
1749 2 1110 1109 1108 1112
1750 2 1110 1109 1108 1113
1751 4 1114 1109 1110 1116
1752 4 1115 1109 1110 1116
1753 3 1207 1208 1209 1215
1754 2 1209 1208 1207 1210
1755 2 1209 1208 1207 1211
1756 2 1209 1208 1207 1212
1757 4 1213 1208 1209 1215
1758 4 1214 1208 1209 1215
1759 3 739 740 741 747
1760 2 741 740 739 742
1761 2 741 740 739 743
1762 2 741 740 739 744
1763 4 745 740 741 747
1764 4 746 740 741 747
1765 1 1417 1414 1415 1420
1766 1 1417 1414 1415 1421
1767 1 1418 1414 1415 1420
1768 1 1418 1414 1415 1421
1769 1 1419 1414 1415 1420
1770 1 1419 1414 1415 1421
1771 1 742 739 740 745
1772 1 742 739 740 746
1773 1 743 739 740 745
1774 1 743 739 740 746
1775 1 744 739 740 745
1776 1 744 739 740 746
1777 3 1414 1415 1416 1422
1778 2 1416 1415 1414 1417
1779 2 1416 1415 1414 1418
1780 2 1416 1415 1414 1419
1781 4 1420 1415 1416 1422
1782 4 1421 1415 1416 1422
1783 3 1945 1946 1947 1953
1784 2 1947 1946 1945 1948
1785 2 1947 1946 1945 1949
1786 2 1947 1946 1945 1950
1787 4 1951 1946 1947 1953
1788 4 1952 1946 1947 1953
1789 1 616 613 614 619
1790 1 616 613 614 620
1791 1 617 613 614 619
1792 1 617 613 614 620
1793 1 618 613 614 619
1794 1 618 613 614 620
1795 3 1621 1622 1623 1629
1796 2 1623 1622 1621 1624
1797 2 1623 1622 1621 1625
1798 2 1623 1622 1621 1626
1799 4 1627 1622 1623 1629
1800 4 1628 1622 1623 1629
1801 1 958 955 956 961
1802 1 958 955 956 962
1803 1 959 955 956 961
1804 1 959 955 956 962
1805 1 960 955 956 961
1806 1 960 955 956 962
1807 3 1810 1811 1812 1818
1808 2 1812 1811 1810 1813
1809 2 1812 1811 1810 1814
1810 2 1812 1811 1810 1815
1811 4 1816 1811 1812 1818
1812 4 1817 1811 1812 1818
1813 1 1525 1522 1523 1528
1814 1 1525 1522 1523 1529
1815 1 1526 1522 1523 1528
1816 1 1526 1522 1523 1529
1817 1 1527 1522 1523 1528
1818 1 1527 1522 1523 1529
1819 1 1210 1207 1208 1213
1820 1 1210 1207 1208 1214
1821 1 1211 1207 1208 1213
1822 1 1211 1207 1208 1214
1823 1 1212 1207 1208 1213
1824 1 1212 1207 1208 1214
1825 3 496 497 498 504
1826 2 498 497 496 499
1827 2 498 497 496 500
1828 2 498 497 496 501
1829 4 502 497 498 504
1830 4 503 497 498 504
1831 1 1624 1621 1622 1627
1832 1 1624 1621 1622 1628
1833 1 1625 1621 1622 1627
1834 1 1625 1621 1622 1628
1835 1 1626 1621 1622 1627
1836 1 1626 1621 1622 1628
1837 1 139 136 137 142
1838 1 139 136 137 143
1839 1 140 136 137 142
1840 1 140 136 137 143
1841 1 141 136 137 142
1842 1 141 136 137 143
1843 1 976 973 974 979
1844 1 976 973 974 980
1845 1 977 973 974 979
1846 1 977 973 974 980
1847 1 978 973 974 979
1848 1 978 973 974 980
1849 1 499 496 497 502
1850 1 499 496 497 503
1851 1 500 496 497 502
1852 1 500 496 497 503
1853 1 501 496 497 502
1854 1 501 496 497 503
1855 3 136 137 138 144
1856 2 138 137 136 139
1857 2 138 137 136 140
1858 2 138 137 136 141
1859 4 142 137 138 144
1860 4 143 137 138 144
1861 3 973 974 975 981
1862 2 975 974 973 976
1863 2 975 974 973 977
1864 2 975 974 973 978
1865 4 979 974 975 981
1866 4 980 974 975 981
1867 3 532 533 534 540
1868 2 534 533 532 535
1869 2 534 533 532 536
1870 2 534 533 532 537
1871 4 538 533 534 540
1872 4 539 533 534 540
1873 1 2245 2242 2243 2248
1874 1 2245 2242 2243 2249
1875 1 2246 2242 2243 2248
1876 1 2246 2242 2243 2249
1877 1 2247 2242 2243 2248
1878 1 2247 2242 2243 2249
1879 1 1039 1036 1037 1042
1880 1 1039 1036 1037 1043
1881 1 1040 1036 1037 1042
1882 1 1040 1036 1037 1043
1883 1 1041 1036 1037 1042
1884 1 1041 1036 1037 1043
1885 3 1036 1037 1038 1044
1886 2 1038 1037 1036 1039
1887 2 1038 1037 1036 1040
1888 2 1038 1037 1036 1041
1889 4 1042 1037 1038 1044
1890 4 1043 1037 1038 1044
1891 1 535 532 533 538
1892 1 535 532 533 539
1893 1 536 532 533 538
1894 1 536 532 533 539
1895 1 537 532 533 538
1896 1 537 532 533 539
1897 1 598 595 596 601
1898 1 598 595 596 602
1899 1 599 595 596 601
1900 1 599 595 596 602
1901 1 600 595 596 601
1902 1 600 595 596 602
1903 3 1504 1505 1506 1512
1904 2 1506 1505 1504 1507
1905 2 1506 1505 1504 1508
1906 2 1506 1505 1504 1509
1907 4 1510 1505 1506 1512
1908 4 1511 1505 1506 1512
1909 1 1507 1504 1505 1510
1910 1 1507 1504 1505 1511
1911 1 1508 1504 1505 1510
1912 1 1508 1504 1505 1511
1913 1 1509 1504 1505 1510
1914 1 1509 1504 1505 1511
1915 1 436 433 434 439
1916 1 436 433 434 440
1917 1 437 433 434 439
1918 1 437 433 434 440
1919 1 438 433 434 439
1920 1 438 433 434 440
1921 1 931 928 929 934
1922 1 931 928 929 935
1923 1 932 928 929 934
1924 1 932 928 929 935
1925 1 933 928 929 934
1926 1 933 928 929 935
1927 3 595 596 597 603
1928 2 597 596 595 598
1929 2 597 596 595 599
1930 2 597 596 595 600
1931 4 601 596 597 603
1932 4 602 596 597 603
1933 3 928 929 930 936
1934 2 930 929 928 931
1935 2 930 929 928 932
1936 2 930 929 928 933
1937 4 934 929 930 936
1938 4 935 929 930 936
1939 1 2137 2134 2135 2140
1940 1 2137 2134 2135 2141
1941 1 2138 2134 2135 2140
1942 1 2138 2134 2135 2141
1943 1 2139 2134 2135 2140
1944 1 2139 2134 2135 2141
1945 3 955 956 957 963
1946 2 957 956 955 958
1947 2 957 956 955 959
1948 2 957 956 955 960
1949 4 961 956 957 963
1950 4 962 956 957 963
1951 3 1477 1478 1479 1485
1952 2 1479 1478 1477 1480
1953 2 1479 1478 1477 1481
1954 2 1479 1478 1477 1482
1955 4 1483 1478 1479 1485
1956 4 1484 1478 1479 1485
1957 1 1480 1477 1478 1483
1958 1 1480 1477 1478 1484
1959 1 1481 1477 1478 1483
1960 1 1481 1477 1478 1484
1961 1 1482 1477 1478 1483
1962 1 1482 1477 1478 1484
1963 1 445 442 443 448
1964 1 445 442 443 449
1965 1 446 442 443 448
1966 1 446 442 443 449
1967 1 447 442 443 448
1968 1 447 442 443 449
1969 3 1171 1172 1173 1179
1970 2 1173 1172 1171 1174
1971 2 1173 1172 1171 1175
1972 2 1173 1172 1171 1176
1973 4 1177 1172 1173 1179
1974 4 1178 1172 1173 1179
1975 1 1714 1711 1712 1717
1976 1 1714 1711 1712 1718
1977 1 1715 1711 1712 1717
1978 1 1715 1711 1712 1718
1979 1 1716 1711 1712 1717
1980 1 1716 1711 1712 1718
1981 3 442 443 444 450
1982 2 444 443 442 445
1983 2 444 443 442 446
1984 2 444 443 442 447
1985 4 448 443 444 450
1986 4 449 443 444 450
1987 1 1174 1171 1172 1177
1988 1 1174 1171 1172 1178
1989 1 1175 1171 1172 1177
1990 1 1175 1171 1172 1178
1991 1 1176 1171 1172 1177
1992 1 1176 1171 1172 1178
1993 3 1711 1712 1713 1719
1994 2 1713 1712 1711 1714
1995 2 1713 1712 1711 1715
1996 2 1713 1712 1711 1716
1997 4 1717 1712 1713 1719
1998 4 1718 1712 1713 1719
1999 1 1948 1945 1946 1951
2000 1 1948 1945 1946 1952
2001 1 1949 1945 1946 1951
2002 1 1949 1945 1946 1952
2003 1 1950 1945 1946 1951
2004 1 1950 1945 1946 1952
2005 1 2227 2224 2225 2230
2006 1 2227 2224 2225 2231
2007 1 2228 2224 2225 2230
2008 1 2228 2224 2225 2231
2009 1 2229 2224 2225 2230
2010 1 2229 2224 2225 2231
2011 3 2188 2189 2190 2196
2012 2 2190 2189 2188 2191
2013 2 2190 2189 2188 2192
2014 2 2190 2189 2188 2193
2015 4 2194 2189 2190 2196
2016 4 2195 2189 2190 2196
2017 3 1684 1685 1686 1692
2018 2 1686 1685 1684 1687
2019 2 1686 1685 1684 1688
2020 2 1686 1685 1684 1689
2021 4 1690 1685 1686 1692
2022 4 1691 1685 1686 1692
2023 1 1687 1684 1685 1690
2024 1 1687 1684 1685 1691
2025 1 1688 1684 1685 1690
2026 1 1688 1684 1685 1691
2027 1 1689 1684 1685 1690
2028 1 1689 1684 1685 1691
2029 1 634 631 632 637
2030 1 634 631 632 638
2031 1 635 631 632 637
2032 1 635 631 632 638
2033 1 636 631 632 637
2034 1 636 631 632 638
2035 1 2191 2188 2189 2194
2036 1 2191 2188 2189 2195
2037 1 2192 2188 2189 2194
2038 1 2192 2188 2189 2195
2039 1 2193 2188 2189 2194
2040 1 2193 2188 2189 2195
2041 1 1867 1864 1865 1870
2042 1 1867 1864 1865 1871
2043 1 1868 1864 1865 1870
2044 1 1868 1864 1865 1871
2045 1 1869 1864 1865 1870
2046 1 1869 1864 1865 1871
2047 1 1003 1000 1001 1006
2048 1 1003 1000 1001 1007
2049 1 1004 1000 1001 1006
2050 1 1004 1000 1001 1007
2051 1 1005 1000 1001 1006
2052 1 1005 1000 1001 1007
2053 3 388 389 390 396
2054 2 390 389 388 391
2055 2 390 389 388 392
2056 2 390 389 388 393
2057 4 394 389 390 396
2058 4 395 389 390 396
2059 1 2065 2062 2063 2068
2060 1 2065 2062 2063 2069
2061 1 2066 2062 2063 2068
2062 1 2066 2062 2063 2069
2063 1 2067 2062 2063 2068
2064 1 2067 2062 2063 2069
2065 1 391 388 389 394
2066 1 391 388 389 395
2067 1 392 388 389 394
2068 1 392 388 389 395
2069 1 393 388 389 394
2070 1 393 388 389 395
2071 3 1000 1001 1002 1008
2072 2 1002 1001 1000 1003
2073 2 1002 1001 1000 1004
2074 2 1002 1001 1000 1005
2075 4 1006 1001 1002 1008
2076 4 1007 1001 1002 1008
2077 3 433 434 435 441
2078 2 435 434 433 436
2079 2 435 434 433 437
2080 2 435 434 433 438
2081 4 439 434 435 441
2082 4 440 434 435 441
2083 3 1495 1496 1497 1503
2084 2 1497 1496 1495 1498
2085 2 1497 1496 1495 1499
2086 2 1497 1496 1495 1500
2087 4 1501 1496 1497 1503
2088 4 1502 1496 1497 1503
2089 1 355 352 353 358
2090 1 355 352 353 359
2091 1 356 352 353 358
2092 1 356 352 353 359
2093 1 357 352 353 358
2094 1 357 352 353 359
2095 3 2062 2063 2064 2070
2096 2 2064 2063 2062 2065
2097 2 2064 2063 2062 2066
2098 2 2064 2063 2062 2067
2099 4 2068 2063 2064 2070
2100 4 2069 2063 2064 2070
2101 3 289 290 291 297
2102 2 291 290 289 292
2103 2 291 290 289 293
2104 2 291 290 289 294
2105 4 295 290 291 297
2106 4 296 290 291 297
2107 1 292 289 290 295
2108 1 292 289 290 296
2109 1 293 289 290 295
2110 1 293 289 290 296
2111 1 294 289 290 295
2112 1 294 289 290 296
2113 3 352 353 354 360
2114 2 354 353 352 355
2115 2 354 353 352 356
2116 2 354 353 352 357
2117 4 358 353 354 360
2118 4 359 353 354 360
2119 3 1072 1073 1074 1080
2120 2 1074 1073 1072 1075
2121 2 1074 1073 1072 1076
2122 2 1074 1073 1072 1077
2123 4 1078 1073 1074 1080
2124 4 1079 1073 1074 1080
2125 1 1570 1567 1568 1573
2126 1 1570 1567 1568 1574
2127 1 1571 1567 1568 1573
2128 1 1571 1567 1568 1574
2129 1 1572 1567 1568 1573
2130 1 1572 1567 1568 1574
2131 1 1390 1387 1388 1393
2132 1 1390 1387 1388 1394
2133 1 1391 1387 1388 1393
2134 1 1391 1387 1388 1394
2135 1 1392 1387 1388 1393
2136 1 1392 1387 1388 1394
2137 1 166 163 164 169
2138 1 166 163 164 170
2139 1 167 163 164 169
2140 1 167 163 164 170
2141 1 168 163 164 169
2142 1 168 163 164 170
2143 3 163 164 165 171
2144 2 165 164 163 166
2145 2 165 164 163 167
2146 2 165 164 163 168
2147 4 169 164 165 171
2148 4 170 164 165 171
2149 1 607 604 605 610
2150 1 607 604 605 611
2151 1 608 604 605 610
2152 1 608 604 605 611
2153 1 609 604 605 610
2154 1 609 604 605 611
2155 1 724 721 722 727
2156 1 724 721 722 728
2157 1 725 721 722 727
2158 1 725 721 722 728
2159 1 726 721 722 727
2160 1 726 721 722 728
2161 3 721 722 723 729
2162 2 723 722 721 724
2163 2 723 722 721 725
2164 2 723 722 721 726
2165 4 727 722 723 729
2166 4 728 722 723 729
2167 3 1567 1568 1569 1575
2168 2 1569 1568 1567 1570
2169 2 1569 1568 1567 1571
2170 2 1569 1568 1567 1572
2171 4 1573 1568 1569 1575
2172 4 1574 1568 1569 1575
2173 1 589 586 587 592
2174 1 589 586 587 593
2175 1 590 586 587 592
2176 1 590 586 587 593
2177 1 591 586 587 592
2178 1 591 586 587 593
2179 3 892 893 894 900
2180 2 894 893 892 895
2181 2 894 893 892 896
2182 2 894 893 892 897
2183 4 898 893 894 900
2184 4 899 893 894 900
2185 1 1075 1072 1073 1078
2186 1 1075 1072 1073 1079
2187 1 1076 1072 1073 1078
2188 1 1076 1072 1073 1079
2189 1 1077 1072 1073 1078
2190 1 1077 1072 1073 1079
2191 3 631 632 633 639
2192 2 633 632 631 634
2193 2 633 632 631 635
2194 2 633 632 631 636
2195 4 637 632 633 639
2196 4 638 632 633 639
2197 1 895 892 893 898
2198 1 895 892 893 899
2199 1 896 892 893 898
2200 1 896 892 893 899
2201 1 897 892 893 898
2202 1 897 892 893 899
2203 3 1459 1460 1461 1467
2204 2 1461 1460 1459 1462
2205 2 1461 1460 1459 1463
2206 2 1461 1460 1459 1464
2207 4 1465 1460 1461 1467
2208 4 1466 1460 1461 1467
2209 1 1462 1459 1460 1465
2210 1 1462 1459 1460 1466
2211 1 1463 1459 1460 1465
2212 1 1463 1459 1460 1466
2213 1 1464 1459 1460 1465
2214 1 1464 1459 1460 1466
2215 3 586 587 588 594
2216 2 588 587 586 589
2217 2 588 587 586 590
2218 2 588 587 586 591
2219 4 592 587 588 594
2220 4 593 587 588 594
2221 3 28 29 30 36
2222 2 30 29 28 31
2223 2 30 29 28 32
2224 2 30 29 28 33
2225 4 34 29 30 36
2226 4 35 29 30 36
2227 3 667 668 669 675
2228 2 669 668 667 670
2229 2 669 668 667 671
2230 2 669 668 667 672
2231 4 673 668 669 675
2232 4 674 668 669 675
2233 1 670 667 668 673
2234 1 670 667 668 674
2235 1 671 667 668 673
2236 1 671 667 668 674
2237 1 672 667 668 673
2238 1 672 667 668 674
2239 3 1531 1532 1533 1539
2240 2 1533 1532 1531 1534
2241 2 1533 1532 1531 1535
2242 2 1533 1532 1531 1536
2243 4 1537 1532 1533 1539
2244 4 1538 1532 1533 1539
2245 1 1534 1531 1532 1537
2246 1 1534 1531 1532 1538
2247 1 1535 1531 1532 1537
2248 1 1535 1531 1532 1538
2249 1 1536 1531 1532 1537
2250 1 1536 1531 1532 1538
2251 3 1882 1883 1884 1890
2252 2 1884 1883 1882 1885
2253 2 1884 1883 1882 1886
2254 2 1884 1883 1882 1887
2255 4 1888 1883 1884 1890
2256 4 1889 1883 1884 1890
2257 3 811 812 813 819
2258 2 813 812 811 814
2259 2 813 812 811 815
2260 2 813 812 811 816
2261 4 817 812 813 819
2262 4 818 812 813 819
2263 1 1885 1882 1883 1888
2264 1 1885 1882 1883 1889
2265 1 1886 1882 1883 1888
2266 1 1886 1882 1883 1889
2267 1 1887 1882 1883 1888
2268 1 1887 1882 1883 1889
2269 1 328 325 326 331
2270 1 328 325 326 332
2271 1 329 325 326 331
2272 1 329 325 326 332
2273 1 330 325 326 331
2274 1 330 325 326 332
2275 1 814 811 812 817
2276 1 814 811 812 818
2277 1 815 811 812 817
2278 1 815 811 812 818
2279 1 816 811 812 817
2280 1 816 811 812 818
2281 1 2101 2098 2099 2104
2282 1 2101 2098 2099 2105
2283 1 2102 2098 2099 2104
2284 1 2102 2098 2099 2105
2285 1 2103 2098 2099 2104
2286 1 2103 2098 2099 2105
2287 1 364 361 362 367
2288 1 364 361 362 368
2289 1 365 361 362 367
2290 1 365 361 362 368
2291 1 366 361 362 367
2292 1 366 361 362 368
2293 3 964 965 966 972
2294 2 966 965 964 967
2295 2 966 965 964 968
2296 2 966 965 964 969
2297 4 970 965 966 972
2298 4 971 965 966 972
2299 1 967 964 965 970
2300 1 967 964 965 971
2301 1 968 964 965 970
2302 1 968 964 965 971
2303 1 969 964 965 970
2304 1 969 964 965 971
2305 3 361 362 363 369
2306 2 363 362 361 364
2307 2 363 362 361 365
2308 2 363 362 361 366
2309 4 367 362 363 369
2310 4 368 362 363 369
2311 3 2098 2099 2100 2106
2312 2 2100 2099 2098 2101
2313 2 2100 2099 2098 2102
2314 2 2100 2099 2098 2103
2315 4 2104 2099 2100 2106
2316 4 2105 2099 2100 2106
2317 3 154 155 156 162
2318 2 156 155 154 157
2319 2 156 155 154 158
2320 2 156 155 154 159
2321 4 160 155 156 162
2322 4 161 155 156 162
2323 1 787 784 785 790
2324 1 787 784 785 791
2325 1 788 784 785 790
2326 1 788 784 785 791
2327 1 789 784 785 790
2328 1 789 784 785 791
2329 1 769 766 767 772
2330 1 769 766 767 773
2331 1 770 766 767 772
2332 1 770 766 767 773
2333 1 771 766 767 772
2334 1 771 766 767 773
2335 3 2179 2180 2181 2187
2336 2 2181 2180 2179 2182
2337 2 2181 2180 2179 2183
2338 2 2181 2180 2179 2184
2339 4 2185 2180 2181 2187
2340 4 2186 2180 2181 2187
2341 3 991 992 993 999
2342 2 993 992 991 994
2343 2 993 992 991 995
2344 2 993 992 991 996
2345 4 997 992 993 999
2346 4 998 992 993 999
2347 1 157 154 155 160
2348 1 157 154 155 161
2349 1 158 154 155 160
2350 1 158 154 155 161
2351 1 159 154 155 160
2352 1 159 154 155 161
2353 3 2107 2108 2109 2115
2354 2 2109 2108 2107 2110
2355 2 2109 2108 2107 2111
2356 2 2109 2108 2107 2112
2357 4 2113 2108 2109 2115
2358 4 2114 2108 2109 2115
2359 3 1261 1262 1263 1269
2360 2 1263 1262 1261 1264
2361 2 1263 1262 1261 1265
2362 2 1263 1262 1261 1266
2363 4 1267 1262 1263 1269
2364 4 1268 1262 1263 1269
2365 1 2182 2179 2180 2185
2366 1 2182 2179 2180 2186
2367 1 2183 2179 2180 2185
2368 1 2183 2179 2180 2186
2369 1 2184 2179 2180 2185
2370 1 2184 2179 2180 2186
2371 3 1090 1091 1092 1098
2372 2 1092 1091 1090 1093
2373 2 1092 1091 1090 1094
2374 2 1092 1091 1090 1095
2375 4 1096 1091 1092 1098
2376 4 1097 1091 1092 1098
2377 1 373 370 371 376
2378 1 373 370 371 377
2379 1 374 370 371 376
2380 1 374 370 371 377
2381 1 375 370 371 376
2382 1 375 370 371 377
2383 3 1720 1721 1722 1728
2384 2 1722 1721 1720 1723
2385 2 1722 1721 1720 1724
2386 2 1722 1721 1720 1725
2387 4 1726 1721 1722 1728
2388 4 1727 1721 1722 1728
2389 1 1723 1720 1721 1726
2390 1 1723 1720 1721 1727
2391 1 1724 1720 1721 1726
2392 1 1724 1720 1721 1727
2393 1 1725 1720 1721 1726
2394 1 1725 1720 1721 1727
2395 1 2110 2107 2108 2113
2396 1 2110 2107 2108 2114
2397 1 2111 2107 2108 2113
2398 1 2111 2107 2108 2114
2399 1 2112 2107 2108 2113
2400 1 2112 2107 2108 2114
2401 1 1093 1090 1091 1096
2402 1 1093 1090 1091 1097
2403 1 1094 1090 1091 1096
2404 1 1094 1090 1091 1097
2405 1 1095 1090 1091 1096
2406 1 1095 1090 1091 1097
2407 3 1936 1937 1938 1944
2408 2 1938 1937 1936 1939
2409 2 1938 1937 1936 1940
2410 2 1938 1937 1936 1941
2411 4 1942 1937 1938 1944
2412 4 1943 1937 1938 1944
2413 3 451 452 453 459
2414 2 453 452 451 454
2415 2 453 452 451 455
2416 2 453 452 451 456
2417 4 457 452 453 459
2418 4 458 452 453 459
2419 1 1984 1981 1982 1987
2420 1 1984 1981 1982 1988
2421 1 1985 1981 1982 1987
2422 1 1985 1981 1982 1988
2423 1 1986 1981 1982 1987
2424 1 1986 1981 1982 1988
2425 1 1696 1693 1694 1699
2426 1 1696 1693 1694 1700
2427 1 1697 1693 1694 1699
2428 1 1697 1693 1694 1700
2429 1 1698 1693 1694 1699
2430 1 1698 1693 1694 1700
2431 3 298 299 300 306
2432 2 300 299 298 301
2433 2 300 299 298 302
2434 2 300 299 298 303
2435 4 304 299 300 306
2436 4 305 299 300 306
2437 3 1900 1901 1902 1908
2438 2 1902 1901 1900 1903
2439 2 1902 1901 1900 1904
2440 2 1902 1901 1900 1905
2441 4 1906 1901 1902 1908
2442 4 1907 1901 1902 1908
2443 3 1702 1703 1704 1710
2444 2 1704 1703 1702 1705
2445 2 1704 1703 1702 1706
2446 2 1704 1703 1702 1707
2447 4 1708 1703 1704 1710
2448 4 1709 1703 1704 1710
2449 1 1705 1702 1703 1708
2450 1 1705 1702 1703 1709
2451 1 1706 1702 1703 1708
2452 1 1706 1702 1703 1709
2453 1 1707 1702 1703 1708
2454 1 1707 1702 1703 1709
2455 3 766 767 768 774
2456 2 768 767 766 769
2457 2 768 767 766 770
2458 2 768 767 766 771
2459 4 772 767 768 774
2460 4 773 767 768 774
2461 1 1903 1900 1901 1906
2462 1 1903 1900 1901 1907
2463 1 1904 1900 1901 1906
2464 1 1904 1900 1901 1907
2465 1 1905 1900 1901 1906
2466 1 1905 1900 1901 1907
2467 3 379 380 381 387
2468 2 381 380 379 382
2469 2 381 380 379 383
2470 2 381 380 379 384
2471 4 385 380 381 387
2472 4 386 380 381 387
2473 3 343 344 345 351
2474 2 345 344 343 346
2475 2 345 344 343 347
2476 2 345 344 343 348
2477 4 349 344 345 351
2478 4 350 344 345 351
2479 1 1021 1018 1019 1024
2480 1 1021 1018 1019 1025
2481 1 1022 1018 1019 1024
2482 1 1022 1018 1019 1025
2483 1 1023 1018 1019 1024
2484 1 1023 1018 1019 1025
2485 1 994 991 992 997
2486 1 994 991 992 998
2487 1 995 991 992 997
2488 1 995 991 992 998
2489 1 996 991 992 997
2490 1 996 991 992 998
2491 1 1939 1936 1937 1942
2492 1 1939 1936 1937 1943
2493 1 1940 1936 1937 1942
2494 1 1940 1936 1937 1943
2495 1 1941 1936 1937 1942
2496 1 1941 1936 1937 1943
2497 3 676 677 678 684
2498 2 678 677 676 679
2499 2 678 677 676 680
2500 2 678 677 676 681
2501 4 682 677 678 684
2502 4 683 677 678 684
2503 1 679 676 677 682
2504 1 679 676 677 683
2505 1 680 676 677 682
2506 1 680 676 677 683
2507 1 681 676 677 682
2508 1 681 676 677 683
2509 3 1819 1820 1821 1827
2510 2 1821 1820 1819 1822
2511 2 1821 1820 1819 1823
2512 2 1821 1820 1819 1824
2513 4 1825 1820 1821 1827
2514 4 1826 1820 1821 1827
2515 1 130 127 128 133
2516 1 130 127 128 134
2517 1 131 127 128 133
2518 1 131 127 128 134
2519 1 132 127 128 133
2520 1 132 127 128 134
2521 1 103 100 101 106
2522 1 103 100 101 107
2523 1 104 100 101 106
2524 1 104 100 101 107
2525 1 105 100 101 106
2526 1 105 100 101 107
2527 3 1585 1586 1587 1593
2528 2 1587 1586 1585 1588
2529 2 1587 1586 1585 1589
2530 2 1587 1586 1585 1590
2531 4 1591 1586 1587 1593
2532 4 1592 1586 1587 1593
2533 3 100 101 102 108
2534 2 102 101 100 103
2535 2 102 101 100 104
2536 2 102 101 100 105
2537 4 106 101 102 108
2538 4 107 101 102 108
2539 3 217 218 219 225
2540 2 219 218 217 220
2541 2 219 218 217 221
2542 2 219 218 217 222
2543 4 223 218 219 225
2544 4 224 218 219 225
2545 1 1678 1675 1676 1681
2546 1 1678 1675 1676 1682
2547 1 1679 1675 1676 1681
2548 1 1679 1675 1676 1682
2549 1 1680 1675 1676 1681
2550 1 1680 1675 1676 1682
2551 1 256 253 254 259
2552 1 256 253 254 260
2553 1 257 253 254 259
2554 1 257 253 254 260
2555 1 258 253 254 259
2556 1 258 253 254 260
2557 1 2236 2233 2234 2239
2558 1 2236 2233 2234 2240
2559 1 2237 2233 2234 2239
2560 1 2237 2233 2234 2240
2561 1 2238 2233 2234 2239
2562 1 2238 2233 2234 2240
2563 3 2233 2234 2235 2241
2564 2 2235 2234 2233 2236
2565 2 2235 2234 2233 2237
2566 2 2235 2234 2233 2238
2567 4 2239 2234 2235 2241
2568 4 2240 2234 2235 2241
2569 1 220 217 218 223
2570 1 220 217 218 224
2571 1 221 217 218 223
2572 1 221 217 218 224
2573 1 222 217 218 223
2574 1 222 217 218 224
2575 3 253 254 255 261
2576 2 255 254 253 256
2577 2 255 254 253 257
2578 2 255 254 253 258
2579 4 259 254 255 261
2580 4 260 254 255 261
2581 1 1813 1810 1811 1816
2582 1 1813 1810 1811 1817
2583 1 1814 1810 1811 1816
2584 1 1814 1810 1811 1817
2585 1 1815 1810 1811 1816
2586 1 1815 1810 1811 1817
2587 1 1453 1450 1451 1456
2588 1 1453 1450 1451 1457
2589 1 1454 1450 1451 1456
2590 1 1454 1450 1451 1457
2591 1 1455 1450 1451 1456
2592 1 1455 1450 1451 1457
2593 3 1018 1019 1020 1026
2594 2 1020 1019 1018 1021
2595 2 1020 1019 1018 1022
2596 2 1020 1019 1018 1023
2597 4 1024 1019 1020 1026
2598 4 1025 1019 1020 1026
2599 3 1675 1676 1677 1683
2600 2 1677 1676 1675 1678
2601 2 1677 1676 1675 1679
2602 2 1677 1676 1675 1680
2603 4 1681 1676 1677 1683
2604 4 1682 1676 1677 1683
2605 3 1846 1847 1848 1854
2606 2 1848 1847 1846 1849
2607 2 1848 1847 1846 1850
2608 2 1848 1847 1846 1851
2609 4 1852 1847 1848 1854
2610 4 1853 1847 1848 1854
2611 3 910 911 912 918
2612 2 912 911 910 913
2613 2 912 911 910 914
2614 2 912 911 910 915
2615 4 916 911 912 918
2616 4 917 911 912 918
2617 3 1333 1334 1335 1341
2618 2 1335 1334 1333 1336
2619 2 1335 1334 1333 1337
2620 2 1335 1334 1333 1338
2621 4 1339 1334 1335 1341
2622 4 1340 1334 1335 1341
2623 1 94 91 92 97
2624 1 94 91 92 98
2625 1 95 91 92 97
2626 1 95 91 92 98
2627 1 96 91 92 97
2628 1 96 91 92 98
2629 3 127 128 129 135
2630 2 129 128 127 130
2631 2 129 128 127 131
2632 2 129 128 127 132
2633 4 133 128 129 135
2634 4 134 128 129 135
2635 3 577 578 579 585
2636 2 579 578 577 580
2637 2 579 578 577 581
2638 2 579 578 577 582
2639 4 583 578 579 585
2640 4 584 578 579 585
2641 1 580 577 578 583
2642 1 580 577 578 584
2643 1 581 577 578 583
2644 1 581 577 578 584
2645 1 582 577 578 583
2646 1 582 577 578 584
2647 3 2071 2072 2073 2079
2648 2 2073 2072 2071 2074
2649 2 2073 2072 2071 2075
2650 2 2073 2072 2071 2076
2651 4 2077 2072 2073 2079
2652 4 2078 2072 2073 2079
2653 3 91 92 93 99
2654 2 93 92 91 94
2655 2 93 92 91 95
2656 2 93 92 91 96
2657 4 97 92 93 99
2658 4 98 92 93 99
2659 3 613 614 615 621
2660 2 615 614 613 616
2661 2 615 614 613 617
2662 2 615 614 613 618
2663 4 619 614 615 621
2664 4 620 614 615 621
2665 3 1450 1451 1452 1458
2666 2 1452 1451 1450 1453
2667 2 1452 1451 1450 1454
2668 2 1452 1451 1450 1455
2669 4 1456 1451 1452 1458
2670 4 1457 1451 1452 1458
2671 3 1315 1316 1317 1323
2672 2 1317 1316 1315 1318
2673 2 1317 1316 1315 1319
2674 2 1317 1316 1315 1320
2675 4 1321 1316 1317 1323
2676 4 1322 1316 1317 1323
2677 1 1318 1315 1316 1321
2678 1 1318 1315 1316 1322
2679 1 1319 1315 1316 1321
2680 1 1319 1315 1316 1322
2681 1 1320 1315 1316 1321
2682 1 1320 1315 1316 1322
2683 3 1603 1604 1605 1611
2684 2 1605 1604 1603 1606
2685 2 1605 1604 1603 1607
2686 2 1605 1604 1603 1608
2687 4 1609 1604 1605 1611
2688 4 1610 1604 1605 1611
2689 1 1588 1585 1586 1591
2690 1 1588 1585 1586 1592
2691 1 1589 1585 1586 1591
2692 1 1589 1585 1586 1592
2693 1 1590 1585 1586 1591
2694 1 1590 1585 1586 1592
2695 1 1768 1765 1766 1771
2696 1 1768 1765 1766 1772
2697 1 1769 1765 1766 1771
2698 1 1769 1765 1766 1772
2699 1 1770 1765 1766 1771
2700 1 1770 1765 1766 1772
2701 1 1606 1603 1604 1609
2702 1 1606 1603 1604 1610
2703 1 1607 1603 1604 1609
2704 1 1607 1603 1604 1610
2705 1 1608 1603 1604 1609
2706 1 1608 1603 1604 1610
2707 3 1117 1118 1119 1125
2708 2 1119 1118 1117 1120
2709 2 1119 1118 1117 1121
2710 2 1119 1118 1117 1122
2711 4 1123 1118 1119 1125
2712 4 1124 1118 1119 1125
2713 3 1765 1766 1767 1773
2714 2 1767 1766 1765 1768
2715 2 1767 1766 1765 1769
2716 2 1767 1766 1765 1770
2717 4 1771 1766 1767 1773
2718 4 1772 1766 1767 1773
2719 1 1120 1117 1118 1123
2720 1 1120 1117 1118 1124
2721 1 1121 1117 1118 1123
2722 1 1121 1117 1118 1124
2723 1 1122 1117 1118 1123
2724 1 1122 1117 1118 1124
2725 1 1849 1846 1847 1852
2726 1 1849 1846 1847 1853
2727 1 1850 1846 1847 1852
2728 1 1850 1846 1847 1853
2729 1 1851 1846 1847 1852
2730 1 1851 1846 1847 1853
2731 1 1111 1108 1109 1114
2732 1 1111 1108 1109 1115
2733 1 1112 1108 1109 1114
2734 1 1112 1108 1109 1115
2735 1 1113 1108 1109 1114
2736 1 1113 1108 1109 1115
2737 3 685 686 687 693
2738 2 687 686 685 688
2739 2 687 686 685 689
2740 2 687 686 685 690
2741 4 691 686 687 693
2742 4 692 686 687 693
2743 1 1426 1423 1424 1429
2744 1 1426 1423 1424 1430
2745 1 1427 1423 1424 1429
2746 1 1427 1423 1424 1430
2747 1 1428 1423 1424 1429
2748 1 1428 1423 1424 1430
2749 3 1423 1424 1425 1431
2750 2 1425 1424 1423 1426
2751 2 1425 1424 1423 1427
2752 2 1425 1424 1423 1428
2753 4 1429 1424 1425 1431
2754 4 1430 1424 1425 1431
2755 3 1 2 3 9
2756 2 3 2 1 4
2757 2 3 2 1 5
2758 2 3 2 1 6
2759 4 7 2 3 9
2760 4 8 2 3 9
2761 1 382 379 380 385
2762 1 382 379 380 386
2763 1 383 379 380 385
2764 1 383 379 380 386
2765 1 384 379 380 385
2766 1 384 379 380 386
2767 1 4 1 2 7
2768 1 4 1 2 8
2769 1 5 1 2 7
2770 1 5 1 2 8
2771 1 6 1 2 7
2772 1 6 1 2 8
2773 1 688 685 686 691
2774 1 688 685 686 692
2775 1 689 685 686 691
2776 1 689 685 686 692
2777 1 690 685 686 691
2778 1 690 685 686 692
2779 1 31 28 29 34
2780 1 31 28 29 35
2781 1 32 28 29 34
2782 1 32 28 29 35
2783 1 33 28 29 34
2784 1 33 28 29 35
2785 1 1975 1972 1973 1978
2786 1 1975 1972 1973 1979
2787 1 1976 1972 1973 1978
2788 1 1976 1972 1973 1979
2789 1 1977 1972 1973 1978
2790 1 1977 1972 1973 1979
2791 1 877 874 875 880
2792 1 877 874 875 881
2793 1 878 874 875 880
2794 1 878 874 875 881
2795 1 879 874 875 880
2796 1 879 874 875 881
2797 3 1243 1244 1245 1251
2798 2 1245 1244 1243 1246
2799 2 1245 1244 1243 1247
2800 2 1245 1244 1243 1248
2801 4 1249 1244 1245 1251
2802 4 1250 1244 1245 1251
2803 3 226 227 228 234
2804 2 228 227 226 229
2805 2 228 227 226 230
2806 2 228 227 226 231
2807 4 232 227 228 234
2808 4 233 227 228 234
2809 1 229 226 227 232
2810 1 229 226 227 233
2811 1 230 226 227 232
2812 1 230 226 227 233
2813 1 231 226 227 232
2814 1 231 226 227 233
2815 1 337 334 335 340
2816 1 337 334 335 341
2817 1 338 334 335 340
2818 1 338 334 335 341
2819 1 339 334 335 340
2820 1 339 334 335 341
2821 1 2011 2008 2009 2014
2822 1 2011 2008 2009 2015
2823 1 2012 2008 2009 2014
2824 1 2012 2008 2009 2015
2825 1 2013 2008 2009 2014
2826 1 2013 2008 2009 2015
2827 3 2008 2009 2010 2016
2828 2 2010 2009 2008 2011
2829 2 2010 2009 2008 2012
2830 2 2010 2009 2008 2013
2831 4 2014 2009 2010 2016
2832 4 2015 2009 2010 2016
2833 3 1540 1541 1542 1548
2834 2 1542 1541 1540 1543
2835 2 1542 1541 1540 1544
2836 2 1542 1541 1540 1545
2837 4 1546 1541 1542 1548
2838 4 1547 1541 1542 1548
2839 3 1441 1442 1443 1449
2840 2 1443 1442 1441 1444
2841 2 1443 1442 1441 1445
2842 2 1443 1442 1441 1446
2843 4 1447 1442 1443 1449
2844 4 1448 1442 1443 1449
2845 1 1543 1540 1541 1546
2846 1 1543 1540 1541 1547
2847 1 1544 1540 1541 1546
2848 1 1544 1540 1541 1547
2849 1 1545 1540 1541 1546
2850 1 1545 1540 1541 1547
2851 1 1444 1441 1442 1447
2852 1 1444 1441 1442 1448
2853 1 1445 1441 1442 1447
2854 1 1445 1441 1442 1448
2855 1 1446 1441 1442 1447
2856 1 1446 1441 1442 1448
2857 3 334 335 336 342
2858 2 336 335 334 337
2859 2 336 335 334 338
2860 2 336 335 334 339
2861 4 340 335 336 342
2862 4 341 335 336 342
2863 1 1804 1801 1802 1807
2864 1 1804 1801 1802 1808
2865 1 1805 1801 1802 1807
2866 1 1805 1801 1802 1808
2867 1 1806 1801 1802 1807
2868 1 1806 1801 1802 1808
2869 3 874 875 876 882
2870 2 876 875 874 877
2871 2 876 875 874 878
2872 2 876 875 874 879
2873 4 880 875 876 882
2874 4 881 875 876 882
2875 3 37 38 39 45
2876 2 39 38 37 40
2877 2 39 38 37 41
2878 2 39 38 37 42
2879 4 43 38 39 45
2880 4 44 38 39 45
2881 1 193 190 191 196
2882 1 193 190 191 197
2883 1 194 190 191 196
2884 1 194 190 191 197
2885 1 195 190 191 196
2886 1 195 190 191 197
2887 1 202 199 200 205
2888 1 202 199 200 206
2889 1 203 199 200 205
2890 1 203 199 200 206
2891 1 204 199 200 205
2892 1 204 199 200 206
2893 3 190 191 192 198
2894 2 192 191 190 193
2895 2 192 191 190 194
2896 2 192 191 190 195
2897 4 196 191 192 198
2898 4 197 191 192 198
2899 3 415 416 417 423
2900 2 417 416 415 418
2901 2 417 416 415 419
2902 2 417 416 415 420
2903 4 421 416 417 423
2904 4 422 416 417 423
2905 3 199 200 201 207
2906 2 201 200 199 202
2907 2 201 200 199 203
2908 2 201 200 199 204
2909 4 205 200 201 207
2910 4 206 200 201 207
2911 1 418 415 416 421
2912 1 418 415 416 422
2913 1 419 415 416 421
2914 1 419 415 416 422
2915 1 420 415 416 421
2916 1 420 415 416 422
2917 1 40 37 38 43
2918 1 40 37 38 44
2919 1 41 37 38 43
2920 1 41 37 38 44
2921 1 42 37 38 43
2922 1 42 37 38 44
2923 3 1909 1910 1911 1917
2924 2 1911 1910 1909 1912
2925 2 1911 1910 1909 1913
2926 2 1911 1910 1909 1914
2927 4 1915 1910 1911 1917
2928 4 1916 1910 1911 1917
2929 3 1801 1802 1803 1809
2930 2 1803 1802 1801 1804
2931 2 1803 1802 1801 1805
2932 2 1803 1802 1801 1806
2933 4 1807 1802 1803 1809
2934 4 1808 1802 1803 1809
2935 3 181 182 183 189
2936 2 183 182 181 184
2937 2 183 182 181 185
2938 2 183 182 181 186
2939 4 187 182 183 189
2940 4 188 182 183 189
2941 3 1387 1388 1389 1395
2942 2 1389 1388 1387 1390
2943 2 1389 1388 1387 1391
2944 2 1389 1388 1387 1392
2945 4 1393 1388 1389 1395
2946 4 1394 1388 1389 1395
2947 1 1066 1063 1064 1069
2948 1 1066 1063 1064 1070
2949 1 1067 1063 1064 1069
2950 1 1067 1063 1064 1070
2951 1 1068 1063 1064 1069
2952 1 1068 1063 1064 1070
2953 1 1912 1909 1910 1915
2954 1 1912 1909 1910 1916
2955 1 1913 1909 1910 1915
2956 1 1913 1909 1910 1916
2957 1 1914 1909 1910 1915
2958 1 1914 1909 1910 1916
2959 3 325 326 327 333
2960 2 327 326 325 328
2961 2 327 326 325 329
2962 2 327 326 325 330
2963 4 331 326 327 333
2964 4 332 326 327 333
2965 3 1063 1064 1065 1071
2966 2 1065 1064 1063 1066
2967 2 1065 1064 1063 1067
2968 2 1065 1064 1063 1068
2969 4 1069 1064 1065 1071
2970 4 1070 1064 1065 1071
2971 1 184 181 182 187
2972 1 184 181 182 188
2973 1 185 181 182 187
2974 1 185 181 182 188
2975 1 186 181 182 187
2976 1 186 181 182 188
2977 1 823 820 821 826
2978 1 823 820 821 827
2979 1 824 820 821 826
2980 1 824 820 821 827
2981 1 825 820 821 826
2982 1 825 820 821 827
2983 3 820 821 822 828
2984 2 822 821 820 823
2985 2 822 821 820 824
2986 2 822 821 820 825
2987 4 826 821 822 828
2988 4 827 821 822 828
2989 1 1264 1261 1262 1267
2990 1 1264 1261 1262 1268
2991 1 1265 1261 1262 1267
2992 1 1265 1261 1262 1268
2993 1 1266 1261 1262 1267
2994 1 1266 1261 1262 1268
2995 3 2134 2135 2136 2142
2996 2 2136 2135 2134 2137
2997 2 2136 2135 2134 2138
2998 2 2136 2135 2134 2139
2999 4 2140 2135 2136 2142
3000 4 2141 2135 2136 2142
