LAMMPS data file via write_data, version 7 Feb 2024, timestep = 0, units = real

2250 atoms
5 atom types
2000 bonds
5 bond types
3250 angles
7 angle types
3000 dihedrals
4 dihedral types

0 30 xlo xhi
0 30 ylo yhi
0 30 zlo zhi

Masses

1 12.01078
2 1.007947
3 15.99943
4 1.007947
5 12.01078

Pair Coeffs # lj/cut/coul/long

1 0.066 3.5
2 0.03 2.5
3 0.17 3.12
4 0 10
5 0.066 3.5

Bond Coeffs # harmonic

1 340 1.09
2 268 1.529
3 340 1.09
4 553 0.945
5 320 1.41

Angle Coeffs # harmonic

1 33 107.8
2 37.5 110.7
3 55 108.5
4 37.5 110.7
5 50 109.5
6 33 107.8
7 35 109.5

Dihedral Coeffs # opls

1 -0 -0 0.3 -0
2 0 -0 0.468 -0
3 -0.356 -0.174 0.492 -0
4 0 -0 0.45 -0

Atoms # full

142 16 2 0.06 7.738930792008812 14.191686373012573 3.431315965060403 0 0 0
1113 124 2 0.06 6.130793511976861 0.07856969183372052 9.956808750245042 0 1 0
1216 136 1 -0.18 9.739590672148756 3.707829120683703 4.223108324349557 0 0 0
1219 136 2 0.06 9.439256516124413 3.9538139995605266 5.240601823721371 0 0 0
1220 136 2 0.06 9.483015379260607 2.6657618806040686 4.031983976627569 0 0 0
1221 136 2 0.06 9.139383526813354 4.3259927165325385 3.554146429445013 0 0 0
1567 175 1 -0.18 0.9643147815720805 8.392542523397104 6.287220514736848 0 0 0
1568 175 5 0.145 1.695604681378998 8.50971520685878 7.629927525682014 0 0 0
1570 175 2 0.06 1.1857684171868828 9.240812122757449 5.63804815268955 0 0 0
1572 175 2 0.06 1.271490088534979 7.487636437287111 5.760236728670289 0 0 0
1573 175 2 0.06 2.7731112444232218 8.508957486837652 7.470241331953942 0 0 0
1675 187 1 -0.18 3.794719566026835 6.695023383911183 2.1505651194759183 0 0 0
1676 187 5 0.145 4.190299488741044 6.325415831899403 3.583157690288964 0 0 0
1677 187 3 -0.6830000000000001 4.662328425536482 4.99139389575563 3.65007866947292 0 0 0
1679 187 2 0.06 4.646219910721332 6.653913030989457 1.4725423536108708 0 0 0
1681 187 2 0.06 3.328752849842385 6.44280817881531 4.239930189430658 0 0 0
1682 187 2 0.06 4.965033551166903 6.993033722162187 3.9554137113644816 0 0 0
1683 187 4 0.418 5.5433606602326195 4.969179488706514 3.3023273588876876 0 0 0
1820 203 5 0.145 7.4703509750200245 5.372336895335395 7.788030642049898 0 0 0
1821 203 3 -0.6830000000000001 7.965713222816913 6.4031515530195335 8.616549346360921 0 0 0
1825 203 2 0.06 8.115567145466438 4.501447122930463 7.886505287469362 0 0 0
1826 203 2 0.06 6.481398022919476 5.078928588243854 8.13439850138524 0 0 0
1827 203 4 0.418 8.926383168929458 6.38634137352332 8.575924138559865 0 0 0
1938 216 3 -0.6830000000000001 4.5050382188621505 2.710584107929561 9.326729364067425 0 0 0
1944 216 4 0.418 5.430757743257793 2.652665871898353 9.593931609279036 0 0 0
2224 248 1 -0.18 3.678622111721888 5.324771019639679 7.127538669198797 0 0 0
2225 248 5 0.145 3.3490988536169737 3.9226492414806424 6.603526495179109 0 0 0
2226 248 3 -0.6830000000000001 2.6991594987835867 3.9953580608257515 5.349267393236216 0 0 0
2227 248 2 0.06 2.793060248848129 5.953961238490825 7.152171593792794 0 0 0
2228 248 2 0.06 4.424033949329003 5.819150557198173 6.506501383764717 0 0 0
2229 248 2 0.06 4.075574976685188 5.2693355682370315 8.142052338555596 0 0 0
2230 248 2 0.06 2.701438803422427 3.4045613832740713 7.309069916602962 0 0 0
2231 248 2 0.06 4.25890949571959 3.329763958979774 6.508591306785933 0 0 0
2232 248 4 0.418 3.3554036135748957 4.25186272470928 4.694636479091042 0 0 0
1125 125 4 0.418 11.292940656141944 7.732623464270776 0.0885227822987297 0 0 1
593 66 2 0.06 9.690819878464957 14.676672319859852 5.176759702412324 0 0 0
508 57 2 0.06 14.591287796678781 3.6476743761917585 1.43380900761749 0 0 0
509 57 2 0.06 14.569554520728767 4.34440562571412 3.0574141859623993 0 0 0
2246 250 2 0.06 8.639268638071133 13.504118191318792 8.310945507366482 0 0 0
534 60 3 -0.6830000000000001 9.973750834150037 7.044915617093187 2.965450535062969 0 0 0
540 60 4 0.418 10.802548391517405 7.312068732895819 2.557142098674243 0 0 0
1009 113 1 -0.18 9.965750874000806 2.246542102639468 7.658010075262081 0 0 0
1010 113 5 0.145 10.216114991609402 2.4137019138334903 9.157507027794091 0 0 0
1011 113 3 -0.6830000000000001 9.561646036205438 1.3904786803798292 9.881738383447514 0 0 0
1012 113 2 0.06 8.90255792868999 2.296986221369288 7.422671617106512 0 0 0
1013 113 2 0.06 10.347383755517557 1.2937604101642939 7.291118908435209 0 0 0
1014 113 2 0.06 10.469843438342103 3.038755442079438 7.105671570727185 0 0 0
1015 113 2 0.06 9.869146104693781 3.391949863314566 9.483973540594082 0 0 0
1016 113 2 0.06 11.281236915802593 2.3686309972603685 9.37316141793026 0 0 0
1017 113 4 0.418 10.06275490877737 0.5818969726540162 9.72811442862328 0 0 0
1217 136 5 0.145 11.23070524062782 3.9819423718718614 4.001260654624179 0 0 0
1218 136 3 -0.6830000000000001 12.045625870496902 3.1954468164854433 4.850706672951737 0 0 0
1222 136 2 0.06 11.433541523249554 5.032270181033585 4.197686908513039 0 0 0
1223 136 2 0.06 11.5005341318796 3.7855156489991075 2.9639225568820735 0 0 0
1224 136 4 0.418 11.99103538490539 2.290406901295059 4.579049387180833 0 0 0
1288 144 1 -0.18 13.397470987199233 7.120365732832177 3.6814873171949443 0 0 0
1289 144 5 0.145 13.153967100701827 6.7837912559496845 2.205301181276716 0 0 0
1290 144 3 -0.6830000000000001 12.292344925808692 7.739921615905311 1.6166933548379168 0 0 0
1291 144 2 0.06 12.46847153216667 7.160028860807508 4.250222692664568 0 0 0
1292 144 2 0.06 13.89782226176564 8.081548640945593 3.786667013004577 0 0 0
2247 250 2 0.06 8.046486527857668 13.756853211409396 6.679139643310546 0 0 0
1294 144 2 0.06 12.715452011841199 5.791757211111279 2.1069822605502075 0 0 0
1295 144 2 0.06 14.097979967631593 6.775322778507265 1.6620264747544455 0 0 0
1296 144 4 0.418 12.782128966927681 8.572529378278954 1.5950856928777943 0 0 0
1396 156 1 -0.18 13.849143453220925 1.7044152087780307 8.020218886693652 0 0 0
1397 156 5 0.145 14.157892232109361 1.5475729209984426 9.511767340739894 0 0 0
1399 156 2 0.06 12.8223346472204 1.428761996394717 7.788178041354389 0 0 0
1400 156 2 0.06 14.503332645988177 1.0824670884566814 7.41076588800936 0 0 0
1401 156 2 0.06 13.982958224925559 2.73753071179215 7.70302111288715 0 0 0
1706 190 2 0.06 14.516235869265708 13.751723898227354 6.737717445207453 0 0 0
1276 142 2 0.06 3.7010363636218075 12.284225495799058 8.378741229183476 0 0 0
1450 162 1 -0.18 12.621862294755772 5.603953373557294 7.332322606426955 0 0 0
1451 162 5 0.145 11.431265851468218 6.568286595251883 7.32105169344429 0 0 0
1452 162 3 -0.6830000000000001 10.727736296028086 6.521749414259845 8.547057337631086 0 0 0
1453 162 2 0.06 12.305869578548153 4.593121462414962 7.588696035591453 0 0 0
1454 162 2 0.06 13.385080689449095 5.916576915310671 8.04281955654364 0 0 0
1455 162 2 0.06 13.09054852229052 5.556495284959107 6.348878437753939 0 0 0
1456 162 2 0.06 10.750344094485607 6.3007181284864116 6.512509053124214 0 0 0
1457 162 2 0.06 11.765974378982651 7.589539275684365 7.138957834733073 0 0 0
1819 203 1 -0.18 7.3960517612944985 5.833454417193316 6.328167110605342 0 0 0
1822 203 2 0.06 8.37946855907108 6.09295164291817 5.935204759984571 0 0 0
1823 203 2 0.06 6.751738827078321 6.706223434335664 6.2239104394697495 0 0 0
1824 203 2 0.06 6.986350237168245 5.043445506936015 5.69797811209797 0 0 0
278 31 2 0.06 0.05364766758494869 4.446951441207505 5.670705669359303 1 0 0
181 21 1 -0.18 2.2875861401620603 13.70823419468064 4.318523447902374 0 0 0
182 21 5 0.145 3.2307600335073485 12.672883977596769 4.939429370164294 0 0 0
183 21 3 -0.6830000000000001 4.373275240921965 13.308064527359377 5.474655589518898 0 0 0
1271 142 5 0.145 3.2866061856410735 13.200422492981664 8.798783770237911 0 0 0
186 21 2 0.06 1.417159850131518 13.221371616461829 3.8784881233255732 0 0 0
187 21 2 0.06 3.537946093382763 11.949782236756546 4.1851851893772345 0 0 0
188 21 2 0.06 2.7264144148935743 12.121856202902064 5.734034182016689 0 0 0
189 21 4 0.418 4.116283176264381 13.695649938055835 6.319635682257691 0 0 0
535 60 2 0.06 7.483403015929467 7.486694101146243 3.8560030786677264 0 0 0
1398 156 3 -0.6830000000000001 13.88530310560989 0.22208006494244 9.910963701689887 0 0 0
1277 142 2 0.06 3.825965802339504 13.401876490188194 9.723230319044216 0 0 0
1270 142 1 -0.18 1.7924742759050847 13.011440516384344 9.079259083077476 0 0 0
1000 112 1 -0.18 3.884287775348615 10.62260996912464 0.1544384492317696 0 0 0
1001 112 5 0.145 4.939315011510308 11.437564912865744 0.9084081702432705 0 0 0
1002 112 3 -0.6830000000000001 6.077901565526755 10.643501164463103 1.1936085109268548 0 0 0
1003 112 2 0.06 3.5568747425454434 9.764109793248718 0.7415783101044283 0 0 0
586 66 1 -0.18 11.762068707177258 14.418674287380231 4.625885256763188 0 0 0
1228 137 2 0.06 4.157467633904902 7.50213303789303 9.691265933588666 0 0 0
1006 112 2 0.06 4.517321219282606 11.811293991753868 1.8417648041061347 0 0 0
1007 112 2 0.06 5.238673489001052 12.3058502834879 0.32379705196384695 0 0 0
141 16 2 0.06 5.4948428005903684 14.179092626542284 2.3378514558464807 0 0 0
1231 137 2 0.06 4.230103442066897 9.886971445168367 8.856407613967184 0 0 0
1306 146 1 -0.18 5.084887571977017 9.47408941862719 5.953458602518632 0 0 0
1307 146 5 0.145 5.758596330468072 9.999739371169166 4.680725723348395 0 0 0
1308 146 3 -0.6830000000000001 5.021922660224553 9.591864726940829 3.5477542385587375 0 0 0
1309 146 2 0.06 4.9789682447791845 8.389992969646359 5.934040871502478 0 0 0
1310 146 2 0.06 4.0932178913863355 9.909977952434012 6.075546980813134 0 0 0
1311 146 2 0.06 5.668762030733604 9.727790630261076 6.837597590606059 0 0 0
1312 146 2 0.06 6.776875427698961 9.62378820209907 4.601302311892034 0 0 0
1313 146 2 0.06 5.82106568367428 11.087455453722729 4.697004358848335 0 0 0
1314 146 4 0.418 5.440107265350003 9.968898281398584 2.766863416525608 0 0 0
1569 175 3 -0.6830000000000001 1.3298649939340057 9.695829044731388 8.304617035894623 0 0 0
904 101 2 0.06 11.508689977086835 14.704993016142074 0.4348209133403666 0 0 1
1960 218 2 0.06 10.173684612714027 11.724231843451648 9.067636923808545 0 0 0
1575 175 4 0.418 1.8742281456723908 9.750326378464049 9.101049595200232 0 0 0
1678 187 2 0.06 3.0193902724015023 6.0302751491019535 1.7696232991029222 0 0 0
1680 187 2 0.06 3.401786399234457 7.712046620513117 2.121138728470107 0 0 0
2243 250 5 0.145 6.799011628354355 12.427100796156017 7.846353761659056 0 0 0
2248 250 2 0.06 6.3162196573723985 12.002403381940596 6.967934190421841 0 0 0
2249 250 2 0.06 6.148538594211681 13.217303611397739 8.21772500186018 0 0 0
1939 216 2 0.06 1.811755974606141 2.722900745453712 9.533283331336767 0 0 0
1008 112 4 0.418 6.637353787483182 10.628670199750369 0.4250445882831607 0 0 0
2250 250 4 0.418 7.379668598998283 10.682842552144136 8.457129609558498 0 0 0
1853 206 2 0.06 7.3554673095625605 14.797954639208639 9.76307240209447 0 0 0
433 49 1 -0.18 9.185512627105695 9.361161794436093 6.7407685218932025 0 0 0
434 49 5 0.145 9.870695408900216 9.56468888341856 5.386812624136883 0 0 0
435 49 3 -0.6830000000000001 10.194543723705484 10.922700744589276 5.183308371128963 0 0 0
436 49 2 0.06 8.252059951043064 9.918222039643268 6.793295095049895 0 0 0
437 49 2 0.06 9.822119725466171 9.674587432871126 7.566921671900926 0 0 0
438 49 2 0.06 8.945485442400827 8.309881300329895 6.89437835141254 0 0 0
439 49 2 0.06 9.207935330572159 9.243055150781549 4.5873797989636165 0 0 0
440 49 2 0.06 10.778114157045648 8.966173257820492 5.311636742001589 0 0 0
441 49 4 0.418 10.556221465604686 10.992690714174678 4.291889994876299 0 0 0
460 52 1 -0.18 13.973160699603147 11.107272220218105 4.7546689379845954 0 0 0
1273 142 2 0.06 1.2435204934372692 12.775922269741809 8.167023453992599 0 0 0
463 52 2 0.06 13.449177321674311 10.158483499948407 4.644936523270727 0 0 0
464 52 2 0.06 13.56797014401718 11.805401225698539 4.021650025192244 0 0 0
465 52 2 0.06 13.725656777752752 11.499701067996984 5.740510766676691 0 0 0
1961 218 2 0.06 11.293923946165458 13.076137316225669 9.13589805201061 0 0 0
532 60 1 -0.18 7.5810167580318275 7.237438210867187 2.8000356506417243 0 0 0
533 60 5 0.145 8.937225550957235 7.679590259779968 2.2508487511477413 0 0 0
536 60 2 0.06 7.445244463726912 6.161884554050346 2.6947406106914205 0 0 0
537 60 2 0.06 6.771435373181351 7.735257274015904 2.2648699852542538 0 0 0
538 60 2 0.06 9.051145865271168 8.759278407569385 2.3289385608388207 0 0 0
539 60 2 0.06 9.024393355610568 7.426727453140717 1.1964799690209147 0 0 0
564 63 2 0.06 8.35532762949716 5.359149345645695 0.1726451045471371 0 0 1
592 66 2 0.06 10.6512053696 13.85280949804143 6.394866779541942 0 0 0
136 16 1 -0.18 6.34148454611848 14.663763242349486 1.849117609070431 0 0 0
1293 144 2 0.06 14.040772317477915 6.373738916241767 4.14802183382026 0 0 0
563 63 2 0.06 6.631491576267103 5.657159803720001 0.3759860587114673 0 0 1
923 103 2 0.06 14.455413155748317 8.124573974712083 7.634695227143288 0 0 0
2245 250 2 0.06 8.83651696152529 12.24947171047604 7.086158588960239 0 0 0
2242 250 1 -0.18 8.15963916991205 13.012442916016205 7.465693780515801 0 0 0
1072 120 1 -0.18 9.164545873898959 11.857445027760274 2.0170484517918275 0 0 0
1073 120 5 0.145 10.473397058430901 11.232146918729098 1.5297567743059175 0 0 0
1074 120 3 -0.6830000000000001 11.266981580080822 10.874718797296643 2.640663234866147 0 0 0
1075 120 2 0.06 9.36179983220392 12.760194807389324 2.5946866222536893 0 0 0
1076 120 2 0.06 8.598319779801622 11.170599275878514 2.646802389509772 0 0 0
1077 120 2 0.06 8.526946504677943 12.13311156622074 1.1772150704610116 0 0 0
1078 120 2 0.06 11.027434974208184 11.938882582448004 0.9125387113724159 0 0 0
1079 120 2 0.06 10.282653042761586 10.349962430972617 0.9184759479403664 0 0 0
1080 120 4 0.418 12.120103585512542 10.585465573080388 2.3019501248624614 0 0 0
1406 157 5 0.145 14.117044801662338 10.320992934663531 0.3436656364279282 0 0 0
1407 157 3 -0.6830000000000001 13.702017130137657 10.061994783389896 1.6699326932919278 0 0 0
1274 142 2 0.06 1.3494428455313592 13.902463357421777 9.52351263663142 0 0 0
1413 157 4 0.418 14.445497955133774 10.252997873485056 2.259939488975498 0 0 0
1458 162 4 0.418 10.909320148255626 7.3313710487440185 9.040028183520514 0 0 0
1230 137 2 0.06 5.800767930329573 8.121457338134128 9.659597573269561 0 0 0
591 66 2 0.06 11.61072311877805 13.455112050816185 4.136905102364415 0 0 0
277 31 2 0.06 0.14039771064360948 3.039863287020434 6.7149524683520285 1 0 0
589 66 2 0.06 12.752730633836167 14.406816713864506 5.07969648758576 0 0 0
1876 209 2 0.06 8.28070994033933 8.855927262110738 9.69407920114165 0 0 0
1954 218 1 -0.18 12.134992882533465 11.312015444389484 8.228281916888058 0 0 0
1957 218 2 0.06 12.060537638632397 10.226470288715573 8.270975123290249 0 0 0
1958 218 2 0.06 13.175508678122931 11.586522679616897 8.392207173675704 0 0 0
1959 218 2 0.06 11.863872126537485 11.618617295576724 7.217579210971683 0 0 0
1272 142 3 -0.6830000000000001 3.505056824773176 14.266668075291397 7.892629079223873 0 0 0
1412 157 2 0.06 14.516045350968023 11.333205221639593 0.28624705279504226 0 0 0
922 103 2 0.06 14.39763319381248 8.974819568419612 9.17648727114558 0 0 0
1955 218 5 0.145 11.214362968970114 11.994887464636118 9.24164999276577 0 0 0
2244 250 3 -0.6830000000000001 6.940429163799281 11.429707195069371 8.840162258809904 0 0 0
587 66 5 0.145 10.664579797479634 14.662541772965804 5.666168802527361 0 0 0
1226 137 5 0.145 4.297896058996874 9.669643781745952 9.921199977898588 0 0 0
276 31 2 0.06 0.8829389149180059 5.027907467819785 7.991908801908323 1 0 0
184 21 2 0.06 2.7855387974842083 14.271658317543258 3.529062116314575 0 0 0
139 16 2 0.06 6.756510349809558 13.963812379601631 1.1244735078180776 0 0 0
1275 142 2 0.06 1.6350724149864926 12.186587342520943 9.775840641270962 0 0 0
1574 175 2 0.06 1.468668113625465 7.655808263578102 8.267881530823722 0 0 0
185 21 2 0.06 1.9299332037786245 14.41601797626635 5.067300938650086 0 0 0
190 22 1 -0.18 4.65913977786075 2.338941276176581 14.456795797127457 0 0 0
191 22 5 0.145 5.348165342901328 1.6943240051365445 15.664082103054376 0 0 0
193 22 2 0.06 5.157193873675326 2.0654109460942545 13.526350490444628 0 0 0
194 22 2 0.06 4.654243137764374 3.4256909255841035 14.533350944336101 0 0 0
195 22 2 0.06 3.620281461682971 2.0150574360446725 14.388290474312871 0 0 0
196 22 2 0.06 5.258239359907208 0.6100865804851177 15.607453292451419 0 0 0
197 22 2 0.06 4.8726127851052485 2.0046798162941166 16.594486889206575 0 0 0
298 34 1 -0.18 6.172245254676906 4.634654628774942 11.318183709891414 0 0 0
301 34 2 0.06 5.359811051381882 4.120864506249091 11.82939757838581 0 0 0
799 89 2 0.06 9.14366712067287 1.812838917858497 17.72067343250893 0 1 0
303 34 2 0.06 6.454051992403513 5.492886238673173 11.928890584730393 0 0 0
2128 237 2 0.06 14.459389321785654 10.541993239771074 15.61514830402418 0 0 0
1420 158 2 0.06 6.4690031915619866 1.1018372063452984 19.668490436174938 0 0 0
796 89 2 0.06 9.30343198535125 1.001287359815829 15.313806511910746 0 1 0
1513 169 1 -0.18 3.044089012599507 7.134415827715147 14.312316153595892 0 0 0
1514 169 5 0.145 4.466515464092864 6.606948491141971 14.096150909287134 0 0 0
1515 169 3 -0.6830000000000001 5.000016573340024 6.064690335213297 15.286558391109395 0 0 0
1516 169 2 0.06 3.0154063043465884 7.909080730317897 15.076769289745839 0 0 0
1517 169 2 0.06 2.3646032083530493 6.335512276752436 14.607173263829809 0 0 0
1520 169 2 0.06 4.458767553805073 5.830824449020704 13.33227642336763 0 0 0
1521 169 4 0.418 5.822652851542481 5.620640504588058 15.038153372877492 0 0 0
1804 201 2 0.06 4.4746379485408525 9.195998217444437 19.62502190088164 0 0 0
1806 201 2 0.06 5.492201635991626 7.92337494753401 18.96033136630025 0 0 0
1918 214 1 -0.18 2.030266654808174 5.083099838288294 17.751561083207008 0 0 0
1919 214 5 0.145 3.4350556974649393 5.10341670781898 18.36386126003814 0 0 0
1920 214 3 -0.6830000000000001 4.360498879657524 4.489572991648858 17.499213819217996 0 0 0
1921 214 2 0.06 1.69614950311573 4.0615550213436435 17.567068472231476 0 0 0
1922 214 2 0.06 2.0063694356563406 5.6233270808694575 16.80763946423087 0 0 0
1923 214 2 0.06 1.3046561105619738 5.5545465671887495 18.41696360146613 0 0 0
1924 214 2 0.06 3.4387945383871785 4.566656104751329 19.31468566730917 0 0 0
1925 214 2 0.06 3.7543638179577736 6.123597074658205 18.568045288784404 0 0 0
1926 214 4 0.418 4.51972419023221 5.064191109639743 16.745110087994515 0 0 0
501 56 2 0.06 14.261819913932566 5.885240708446977 14.042092609137843 0 0 0
1937 216 5 0.145 3.737256150488341 2.0624941098322016 10.315422973003251 0 0 0
1812 202 3 -0.6830000000000001 8.21373236301925 13.697793748416261 19.56959179424365 0 0 0
671 75 2 0.06 13.965796220410493 4.680561787422353 10.053474296521864 0 0 0
1941 216 2 0.06 1.7808429277953908 2.274892384927669 11.237073605124992 0 0 0
1942 216 2 0.06 3.615754067580656 1.0134457695982084 10.047540277582756 0 0 0
1943 216 2 0.06 4.282860390259951 2.092898168134231 11.257583159504058 0 0 0
192 22 3 -0.6830000000000001 6.71926883945549 2.0370171772419394 15.701648100231216 0 0 0
198 22 4 0.418 7.129364688127529 1.4590161033322133 16.357345827868162 0 0 0
299 34 5 0.145 7.380808798701369 3.715787160849658 11.11538253504529 0 0 0
304 34 2 0.06 7.722942250241154 3.319318102837343 12.071308488190212 0 0 0
370 42 1 -0.18 9.08705851743421 5.754864413551832 13.705654904780644 0 0 0
371 42 5 0.145 8.545968104575767 4.771849145588352 14.750478670034497 0 0 0
372 42 3 -0.6830000000000001 7.1734554667345085 4.5105672706851845 14.543579233985717 0 0 0
373 42 2 0.06 8.521568037248974 6.686294132939003 13.711701907048024 0 0 0
374 42 2 0.06 9.049520276910265 5.341038926493502 12.700164170155587 0 0 0
375 42 2 0.06 10.127543242316566 6.00331922739096 13.918890882156692 0 0 0
376 42 2 0.06 8.678815658442826 5.175108814151891 15.752355554348828 0 0 0
377 42 2 0.06 9.094875660605636 3.8311849958051374 14.70451962947147 0 0 0
378 42 4 0.418 6.9766714795459315 3.6570768075097533 14.955678710313062 0 0 0
500 56 2 0.06 13.950625190916414 5.936583322932701 15.770435202453262 0 0 0
640 72 1 -0.18 11.729695463079874 2.4652007822417517 13.123005852987383 0 0 0
641 72 5 0.145 12.741729977160984 2.713978842737993 14.247934963242493 0 0 0
642 72 3 -0.6830000000000001 13.271335026204182 1.4957312611145586 14.731152163332853 0 0 0
643 72 2 0.06 10.91347193899527 1.8238709310708416 13.455592592537027 0 0 0
644 72 2 0.06 12.192731680655235 1.9955882124719022 12.256038940388168 0 0 0
645 72 2 0.06 11.288332474637384 3.4050516757751574 12.788215798139449 0 0 0
646 72 2 0.06 12.256043688841036 3.239814932893022 15.065880944612609 0 0 0
647 72 2 0.06 13.558964362261893 3.3470933000590053 13.904920383849186 0 0 0
648 72 4 0.418 13.707499051929348 1.6717878258824446 15.57248544301761 0 0 0
667 75 1 -0.18 13.218130397864762 4.9373501142138805 10.80352146079549 0 0 0
668 75 5 0.145 13.198829034452691 6.443653107486324 11.071999155856604 0 0 0
670 75 2 0.06 13.444484643777201 4.378934281695416 11.710302659330814 0 0 0
1232 137 2 0.06 4.981481073368672 10.401858102367198 10.346385512580245 0 0 0
544 61 2 0.06 1.6696063070988245 7.927963531407815 19.10385462841751 0 0 0
503 56 2 0.06 14.327610472485274 8.2465772582737 14.766439516905736 0 0 0
676 76 1 -0.18 11.534354343397569 5.335712133427792 17.67976767270646 0 0 0
677 76 5 0.145 10.980838726935433 3.9132792169272363 17.74578939744234 0 0 0
678 76 3 -0.6830000000000001 10.941769986763271 3.4482017236248086 19.077078529361597 0 0 0
679 76 2 0.06 12.584340514633041 5.36964147203612 17.962831328559513 0 0 0
680 76 2 0.06 10.979926829344098 6.0170792500150645 18.325598303267 0 0 0
681 76 2 0.06 11.458341576569115 5.717732986625299 16.663402766996523 0 0 0
682 76 2 0.06 11.603859845180963 3.237079976662829 17.16503134267009 0 0 0
683 76 2 0.06 9.977856344772908 3.881729161304753 17.32454690035594 0 0 0
684 76 4 0.418 10.06583313368057 3.6623382679768786 19.425095426490447 0 0 0
1879 209 2 0.06 9.769868899366923 7.30898370790696 10.986916731433801 0 0 0
499 56 2 0.06 12.615809587353075 5.704802062407351 14.628110707083135 0 0 0
800 89 2 0.06 9.759545315850492 0.2716211757296651 18.27227606791578 0 1 0
1533 171 3 -0.6830000000000001 13.686988357359644 3.396142657886445 19.373735550419365 0 0 0
1576 176 1 -0.18 7.606605918704478 5.62612821451459 18.40256078558137 0 0 0
1577 176 5 0.145 7.40504171901914 4.174452340464391 18.854213266502434 0 0 0
1578 176 3 -0.6830000000000001 8.3323429573636 3.8303284404768196 19.86992984697483 0 0 0
1579 176 2 0.06 8.617821160638282 5.804843974039851 18.041863528456172 0 0 0
1580 176 2 0.06 7.412774510596147 6.32840001665912 19.211333879431425 0 0 0
1581 176 2 0.06 6.922445851857513 5.8716614481831515 17.58896732907974 0 0 0
1582 176 2 0.06 7.512963651433855 3.4931541094556726 18.01124546241866 0 0 0
1583 176 2 0.06 6.391944489163111 4.046255994561699 19.228636898004872 0 0 0
1437 160 2 0.06 13.791225807091996 12.557768444596318 19.257643032187143 0 0 0
1878 209 2 0.06 7.80905263930982 8.782738819245576 11.383063731410127 0 0 0
1880 209 2 0.06 10.201269078988618 8.597321210566134 12.08423408667118 0 0 0
541 61 1 -0.18 0.9527559422694406 8.530424139053506 19.65947982232769 0 0 0
1402 156 2 0.06 13.545914962866707 2.221671879022042 10.106436211772898 0 0 0
2111 235 2 0.06 12.512858280917403 0.5525728954211985 18.34039892860312 0 0 0
2193 244 2 0.06 7.144894233129906 9.762735836987673 15.740762829321802 0 0 0
2191 244 2 0.06 7.160469477205283 8.023699372443026 15.453529024301705 0 0 0
424 48 1 -0.18 1.775920726978868 12.681942761996169 16.044434858600216 0 0 0
425 48 5 0.145 1.089602892785809 11.670443493164132 15.123259572183786 0 0 0
426 48 3 -0.6830000000000001 1.5347927863470292 10.349634040087997 15.394238562140808 0 0 0
427 48 2 0.06 2.853066634300387 12.705562815365473 15.890888585944163 0 0 0
428 48 2 0.06 1.592720034772559 12.456547050258079 17.093987998076354 0 0 0
429 48 2 0.06 1.4004382235350297 13.688205092134847 15.854043681859277 0 0 0
430 48 2 0.06 1.286273315690271 11.923120288345295 14.081779815163301 0 0 0
1875 209 3 -0.6830000000000001 10.955287620350862 8.78557546390525 10.181329283824974 0 0 0
432 48 4 0.418 1.1165543501080475 10.088987721450986 16.230892659740995 0 0 0
543 61 3 -0.6830000000000001 0.22817301219172548 9.762033822553681 17.69215337530128 0 0 0
547 61 2 0.06 1.69089764484442 10.4264776114366 18.964989783318632 0 0 0
1661 185 2 0.06 0.22723663508577774 7.313218913766203 16.216450550321078 1 0 0
658 74 1 -0.18 5.809791706093736 10.902610460114081 13.008691527001886 0 0 0
659 74 5 0.145 4.6361441819557845 10.676116875788027 13.964159112392503 0 0 0
660 74 3 -0.6830000000000001 3.4552954380296423 10.343074309171566 13.260098042943016 0 0 0
661 74 2 0.06 5.598370533592963 11.697574164691337 12.293618812345539 0 0 0
662 74 2 0.06 6.045878878773315 9.99529531422488 12.4544299475761 0 0 0
664 74 2 0.06 4.4561081953541635 11.570966919425063 14.558607507602986 0 0 0
665 74 2 0.06 4.8712543436648215 9.871996875822893 14.659061324457392 0 0 0
666 74 4 0.418 2.7581805462910336 10.274911649881448 13.918137319375994 0 0 0
1198 134 1 -0.18 6.161065408266672 13.728916167955123 16.122377367249694 0 0 0
1199 134 5 0.145 5.349825947371448 13.4983078767427 17.399481891844474 0 0 0
1201 134 2 0.06 6.79337028630917 14.612315567412377 16.216701841830357 0 0 0
1202 134 2 0.06 5.509024730690251 13.852986382549052 15.25838498824741 0 0 0
1203 134 2 0.06 6.811054723305683 12.874748809095092 15.933034672248102 0 0 0
1204 134 2 0.06 6.008522893295051 13.409512115628926 18.260573026886156 0 0 0
1205 134 2 0.06 4.788784168565641 12.56918236647759 17.337809055067503 0 0 0
1206 134 4 0.418 4.086820244499745 14.434829551527589 18.499465425663786 0 0 0
2192 244 2 0.06 8.152356921913386 9.097188914375973 14.461632060458674 0 0 0
954 106 4 0.418 14.15130096743695 12.711405351736088 10.741386422310452 0 0 0
1227 137 3 -0.6830000000000001 3.025790707347287 9.83377631489643 10.519693567445799 0 0 0
756 84 4 0.418 11.928500110497078 14.8812241808056 13.63790317841814 0 0 0
1229 137 2 0.06 4.939409340752847 8.009451770669658 11.189106427146433 0 0 0
2115 235 4 0.418 14.329054595212119 2.5298146829770207 17.893240493194178 0 0 0
1940 216 2 0.06 2.504406039936786 3.803046608607029 10.744456534301237 0 0 0
1233 137 4 0.418 3.1685263734651055 9.991817454478792 11.45981635479674 0 0 0
751 84 2 0.06 12.32591578975684 14.657725312494648 17.23778627550521 0 0 0
496 56 1 -0.18 13.554786235787224 6.230061220751891 14.798152787332754 0 0 0
1200 134 3 -0.6830000000000001 4.4498937760886905 14.562625606552883 17.617153870212636 0 0 0
2108 235 5 0.145 14.629010721729006 0.6338467582210509 17.811068446031115 0 0 0
2109 235 3 -0.6830000000000001 14.553769101331742 1.9058466326018824 17.189306143665707 0 0 0
542 61 5 0.145 0.740065704437571 9.896834664928088 19.004489191075525 0 0 0
2195 244 2 0.06 9.534938587489354 9.690124784569079 16.49824750937958 0 0 0
1404 156 4 0.418 14.000065008839018 0.1612616717428453 10.875596103832137 0 0 0
1518 169 2 0.06 2.6562120151139275 7.569808966565093 13.390171571640778 0 0 0
1519 169 2 0.06 5.122643851363615 7.401692682244078 13.740709089632455 0 0 0
1801 201 1 -0.18 5.084359917436946 8.915507391456707 18.7656644872942 0 0 0
1802 201 5 0.145 4.255905154598776 8.920263594454681 17.477335543112908 0 0 0
1803 201 3 -0.6830000000000001 3.771013879998624 10.22139344278096 17.22112211328147 0 0 0
1805 201 2 0.06 5.920930818536701 9.611457328857218 18.700094737808755 0 0 0
1807 201 2 0.06 3.4097016279457932 8.240711275483218 17.561937610058987 0 0 0
1808 201 2 0.06 4.858202504974 8.578880449423881 16.63631965667542 0 0 0
1809 201 4 0.418 3.11716407116132 10.175810854934825 16.526330036244964 0 0 0
1851 206 2 0.06 7.654406588436446 12.677474389884447 11.086509190826556 0 0 0
1900 212 1 -0.18 3.4932850139101097 13.966357817853247 12.776737578714801 0 0 0
1903 212 2 0.06 2.917703358653713 13.855765172652413 13.694438540349692 0 0 0
1904 212 2 0.06 4.549320995506566 13.864537675763815 13.025069773854256 0 0 0
1905 212 2 0.06 3.2276093549669307 13.136975040715825 12.119370827293135 0 0 0
199 23 1 -0.18 14.301319424839845 10.30597004009829 12.218893277151821 0 0 0
202 23 2 0.06 13.862272664690344 11.290558149797494 12.078438631389378 0 0 0
203 23 2 0.06 14.22774178547392 10.062148252776826 13.276327303896306 0 0 0
204 23 2 0.06 13.686563529652314 9.590009702624775 11.670800315474432 0 0 0
794 89 5 0.145 9.190515256350851 0.7549583054711829 17.48095524942402 0 1 0
225 25 4 0.418 13.74026324652478 0.5208319937637399 13.332920408968633 0 1 0
948 106 3 -0.6830000000000001 14.08887093785926 13.65206552451731 10.875674929421217 0 0 0
483 54 2 0.06 8.501803335647214 9.630461144731903 19.538892740517788 0 0 0
498 56 3 -0.6830000000000001 12.50560383221221 8.226838738351077 15.715804170639817 0 0 0
504 56 4 0.418 13.036729553732254 8.359705375381786 16.48968030677859 0 0 0
663 74 2 0.06 6.7033532506656215 11.18688809728011 13.564074262181679 0 0 0
669 75 3 -0.6830000000000001 14.454580212976117 6.872166605235922 11.552575307525503 0 0 0
673 75 2 0.06 12.425131870777854 6.684171098771287 11.799956903414474 0 0 0
748 84 1 -0.18 12.87430915690477 13.961742814058427 16.60294984797566 0 0 0
749 84 5 0.145 12.236775369913323 13.82639188968282 15.217826117855306 0 0 0
752 84 2 0.06 13.90849275170784 14.296146682515444 16.537908295613658 0 0 0
753 84 2 0.06 12.87054857667245 12.99555334700448 17.106446926182294 0 0 0
754 84 2 0.06 11.222755874330472 13.4459784391971 15.316711409594435 0 0 0
755 84 2 0.06 12.796734435369318 13.11647658986334 14.609290987232717 0 0 0
548 61 2 0.06 0.05288598798587639 10.502140201056688 19.595941543644184 0 0 0
939 105 3 -0.6830000000000001 11.640902231218162 14.386503384752476 11.796260873359632 0 0 0
2194 244 2 0.06 8.530887874858545 8.625205729673889 17.471288555520722 0 0 0
945 105 4 0.418 12.527716459246097 14.26692993353242 11.428164924470456 0 0 0
991 111 1 -0.18 10.980295920425965 10.592519911928795 13.883626222516346 0 0 0
992 111 5 0.145 9.867476877240955 11.607740963858483 13.606404395103969 0 0 0
993 111 3 -0.6830000000000001 9.162780527099253 11.897476769001662 14.794716185764976 0 0 0
994 111 2 0.06 10.57633370998578 9.641194411927072 14.225804316303007 0 0 0
995 111 2 0.06 11.677804366946019 10.947173042329704 14.641350413222138 0 0 0
996 111 2 0.06 11.553982277510958 10.389590320090061 12.980471879509222 0 0 0
997 111 2 0.06 9.173183347780505 11.21995245305261 12.862147319317089 0 0 0
998 111 2 0.06 10.287410246317815 12.530779896412938 13.209167275556547 0 0 0
999 111 4 0.418 8.564812424324174 12.61176343310701 14.623519758693512 0 0 0
1810 202 1 -0.18 9.695878327502378 12.341228286729857 18.232963292212112 0 0 0
1811 202 5 0.145 9.40009210029308 12.939655791694909 19.61322783776701 0 0 0
1813 202 2 0.06 9.842610729615396 13.124160022521927 17.488063688584262 0 0 0
1814 202 2 0.06 8.87687924095469 11.707202085226992 17.89247628190422 0 0 0
1815 202 2 0.06 10.60022574166098 11.733231904075653 18.25138031132261 0 0 0
1816 202 2 0.06 10.212548865423635 13.590731187568512 19.934696350063582 0 0 0
1828 204 1 -0.18 14.398797569651164 8.029217649066073 18.383116435730262 0 0 0
1829 204 5 0.145 14.145530997324059 9.305760739032491 19.189408765113832 0 0 0
1847 206 5 0.145 7.096266789681698 14.757534711826244 10.82030272241737 0 0 0
1832 204 2 0.06 14.801191232889922 8.248927198078855 17.394737543669816 0 0 0
1833 204 2 0.06 13.472310484153008 7.470822053919488 18.258934950805788 0 0 0
1936 216 1 -0.18 2.379167586068044 2.7568388047892896 10.463229374094535 0 0 0
1835 204 2 0.06 13.380923804130253 9.918610205378474 18.71242299468751 0 0 0
1818 202 4 0.418 8.441590919709547 14.54087553478306 19.15337423528833 0 0 0
1846 206 1 -0.18 7.88605333999024 13.649467668507873 11.522413659896477 0 0 0
1849 206 2 0.06 7.646122728212788 13.602427823696281 12.584422505365021 0 0 0
1850 206 2 0.06 8.95912664002213 13.802348975767265 11.41991960275668 0 0 0
1873 209 1 -0.18 8.603443819506701 9.09818117391249 10.70627263612542 0 0 0
1877 209 2 0.06 8.696122584365234 10.181211295015627 10.779299749252 0 0 0
497 56 5 0.145 13.362112643787626 7.7458542118820315 14.694234744531393 0 0 0
1956 218 3 -0.6830000000000001 11.568277675465836 11.645485042502393 10.563498097511134 0 0 0
1852 206 2 0.06 6.027688243939934 14.557230171251565 10.882233197472567 0 0 0
1962 218 4 0.418 11.37589858022577 12.413390818474287 11.100757007356624 0 0 0
502 56 2 0.06 12.938730306552545 7.9990168354696 13.723378827884499 0 0 0
1874 209 5 0.145 9.913424528297627 8.387543267178986 11.056165669399352 0 0 0
302 34 2 0.06 5.793932142369879 5.0210651048765325 10.372314491067739 0 0 0
1539 171 4 0.418 12.723430072909398 3.331326515093749 19.318197366298204 0 0 0
1436 160 2 0.06 12.606226133287834 13.777257952917966 19.725660115094765 0 0 0
2190 244 3 -0.6830000000000001 9.760173033876686 7.685395775206186 16.143511910300518 0 0 0
2196 244 4 0.418 10.642071972657211 8.002745072951457 15.936870463931355 0 0 0
2188 244 1 -0.18 7.781892923231994 8.919272955507823 15.47096141414423 0 0 0
2189 244 5 0.145 8.933698281037977 8.781550414784718 16.472392212627533 0 0 0
1881 209 4 0.418 11.189288066364952 9.696823793490418 10.376216516017424 0 0 0
545 61 2 0.06 0.02481460445768445 7.968265330586813 19.73267343877733 0 0 0
305 34 2 0.06 8.200792594656896 4.293166628560398 10.692831769148782 0 0 0
2130 237 2 0.06 14.93061616037206 11.758740272901818 16.789663871142125 0 0 0
793 89 1 -0.18 9.870246777415089 0.5430216016003167 16.124531052912445 0 1 0
795 89 3 -0.6830000000000001 7.875252197847592 0.24143246465139276 17.466628607362985 0 1 0
798 89 2 0.06 10.865766573015135 0.986505417450975 16.11889430028852 0 1 0
1267 141 2 0.06 2.3456175508256667 12.758629184438854 19.276910574598343 0 0 0
672 75 2 0.06 12.247443183899959 4.6035002085114645 10.434382859217196 0 0 0
1225 137 1 -0.18 4.8241936842383435 8.244215725179219 10.130714848685475 0 0 0
674 75 2 0.06 12.971757077784705 6.992941611419909 10.159777634734244 0 0 0
300 34 3 -0.6830000000000001 7.088426831214642 2.6340370922426226 10.251174810974947 0 0 0
306 34 4 0.418 7.909013855289423 2.138308805215208 10.137924972020164 0 0 0
2114 235 2 0.06 14.995432611664246 0.7610296465994765 18.830635313747877 0 0 0
431 48 2 0.06 0.00932012060357934 11.717887963327934 15.267718301500048 0 0 0
1252 140 1 -0.18 9.656903411201357 14.46894918659256 24.766102241935414 0 0 0
561 63 3 -0.6830000000000001 6.281266508915701 6.693266044929261 27.885116516433403 0 0 0
901 101 1 -0.18 11.334612432326944 14.6262550516019 29.361144049250417 0 0 0
567 63 4 0.418 5.718337825350795 7.3098910412581235 28.335986904017144 0 0 0
577 65 1 -0.18 5.9736543310693655 6.105784171551207 22.021702795719452 0 0 0
578 65 5 0.145 7.474348987842091 5.974436792968234 22.298280753234085 0 0 0
580 65 2 0.06 5.675707493192747 7.146873507301457 21.89689889272592 0 0 0
581 65 2 0.06 5.388749903606903 5.686072111590132 22.839940732173297 0 0 0
582 65 2 0.06 5.700760211781142 5.574586980705388 21.109865593223034 0 0 0
712 80 1 -0.18 3.287517351704646 7.171025194768648 25.36634151090526 0 0 0
713 80 5 0.145 1.821633653021365 7.595775684789359 25.210580348440157 0 0 0
714 80 3 -0.6830000000000001 1.7302938320228558 8.813354111874425 24.497956293154274 0 0 0
715 80 2 0.06 3.8516557777425797 7.8932601280562995 25.956196864755952 0 0 0
717 80 2 0.06 3.36151922699939 6.207059127910561 25.87113206831791 0 0 0
718 80 2 0.06 1.356026452784831 7.719673966331111 26.188165562462846 0 0 0
719 80 2 0.06 1.2583226536218557 6.8287663299472845 24.68004821127209 0 0 0
1243 139 1 -0.18 2.21731048055492 5.955907144793362 21.6793736951918 0 0 0
1244 139 5 0.145 2.5152426214244805 4.678808244959372 22.469854065250882 0 0 0
1245 139 3 -0.6830000000000001 1.3180892446629864 3.992702520594245 22.779039226617137 0 0 0
1246 139 2 0.06 1.65996596412595 6.675294990627068 22.277834886663758 0 0 0
1247 139 2 0.06 1.640267180240811 5.750066589063817 20.779834145401566 0 0 0
1248 139 2 0.06 3.141457461992748 6.447468651431501 21.3735421336821 0 0 0
1249 139 2 0.06 3.03491131406361 4.9274825931051405 23.39439064932321 0 0 0
1250 139 2 0.06 3.1705013417370145 4.02169223000719 21.898544487116364 0 0 0
1251 139 4 0.418 1.062781943768068 3.4769242102667866 22.02715499319336 0 0 0
1414 158 1 -0.18 5.367718840345384 2.0214915501184 21.304154485748853 0 0 0
1256 140 2 0.06 8.697485153000851 13.973317579685691 24.619608491294233 0 0 0
1416 158 3 -0.6830000000000001 7.7226829880500345 1.4763260536535296 21.24732943993029 0 0 0
1417 158 2 0.06 5.58388272822849 3.0655384320960697 21.08445656569514 0 0 0
1418 158 2 0.06 5.270616516997569 1.9278620618075977 22.385993180395264 0 0 0
1419 158 2 0.06 4.39889643717266 1.784047547622489 20.862918918267308 0 0 0
1859 207 2 0.06 7.033833761732158 3.108029964527606 23.975570417819878 0 0 0
379 43 1 -0.18 10.847295587134662 4.691060435193564 22.38246630336885 0 0 0
380 43 5 0.145 10.852474517472265 3.1633973395860213 22.468590677665194 0 0 0
381 43 3 -0.6830000000000001 11.585301099355886 2.7436735354045276 23.59942021747123 0 0 0
382 43 2 0.06 11.858948204113407 5.08717186449552 22.324217632664485 0 0 0
383 43 2 0.06 10.361140819210224 5.13625594759165 23.2514521424568 0 0 0
384 43 2 0.06 10.309538990131646 5.025856712332142 21.494673005816185 0 0 0
385 43 2 0.06 11.301873715519822 2.720736111897493 21.581279724094713 0 0 0
386 43 2 0.06 9.834317081667189 2.7814210776775687 22.53543609561217 0 0 0
387 43 4 0.418 11.421912537503943 1.7961693874972597 23.68783140043709 0 0 0
559 63 1 -0.18 7.409863057352036 5.464021548367589 29.638343005194073 0 0 0
560 63 5 0.145 7.4956284376143385 6.592794216192114 28.605698656792125 0 0 0
562 63 2 0.06 7.194396797523726 4.505977866421955 29.165509384756124 0 0 0
230 26 2 0.06 4.605604481919051 14.575410167762676 23.15375049265428 0 0 0
565 63 2 0.06 8.31152989133538 6.3976360360510975 27.909692989842558 0 0 0
566 63 2 0.06 7.707822248092284 7.545581014591283 29.09058263328662 0 0 0
579 65 3 -0.6830000000000001 7.828522768058778 6.698647856921346 23.45880242952172 0 0 0
585 65 4 0.418 7.523526227326315 6.187892177324636 24.22024185465388 0 0 0
1117 125 1 -0.18 11.504841672773 5.64415401000684 28.418822772160574 0 0 0
1118 125 5 0.145 11.597969431135041 7.165694739147119 28.26633394436554 0 0 0
1120 125 2 0.06 10.483658247693786 5.2900885058638885 28.27976614778006 0 0 0
1121 125 2 0.06 11.849643199605246 5.320021491125725 29.40098759601783 0 0 0
1122 125 2 0.06 12.127198848846081 5.148591647874294 27.67108093752043 0 0 0
1124 125 2 0.06 12.633738166293051 7.486880196643505 28.366666984155422 0 0 0
482 54 2 0.06 9.85116143152386 9.79244114373024 20.652111053644198 0 0 0
1584 176 4 0.418 8.025401413876 3.0238313769746252 20.30362453740589 0 0 0
1146 128 3 -0.6830000000000001 13.262193368196531 4.607557282959446 24.797115229586183 0 0 0
1151 128 2 0.06 13.842332607863531 2.829934439596582 25.62115124726759 0 0 0
1817 202 2 0.06 9.296210106585189 12.154799706446724 20.359821284851158 0 0 0
1152 128 4 0.418 12.605483956562788 4.058968930247183 24.349421786168296 0 0 0
1422 158 4 0.418 8.204177945918856 0.6775343821444655 21.47600502636607 0 0 0
906 101 2 0.06 11.965442138072042 13.822344025952896 28.97948088646451 0 0 0
1558 174 1 -0.18 11.683004124893069 8.100471325409247 22.62225895683632 0 0 0
1561 174 2 0.06 12.001397821225742 8.419304866247334 21.63094203113467 0 0 0
1563 174 2 0.06 12.340593694194437 7.292951337188116 22.944552044270523 0 0 0
1855 207 1 -0.18 7.719878737406069 3.149499501945555 24.82222043696732 0 0 0
1856 207 5 0.145 7.13290287619763 3.9535112461718946 25.98692536942636 0 0 0
1857 207 3 -0.6830000000000001 6.870266198219427 5.283749341983663 25.59206755420963 0 0 0
1858 207 2 0.06 8.656787524333796 3.5885808974680207 24.47941471099383 0 0 0
1860 207 2 0.06 7.9321853809785505 2.1234307883411345 25.1241983888469 0 0 0
1861 207 2 0.06 7.832460104091368 3.9657054596950676 26.82252536500724 0 0 0
1862 207 2 0.06 6.207929742619484 3.499175861983109 26.341994671452486 0 0 0
1863 207 4 0.418 6.588037771582286 5.771230727434178 26.376495734255712 0 0 0
1988 221 2 0.06 14.429769160683556 14.305173162823886 28.344900070272598 0 0 0
227 26 5 0.145 6.500254769893516 13.674470921857795 22.55921336916145 0 0 0
228 26 3 -0.6830000000000001 6.082303296306191 13.3799780145419 21.24271633852955 0 0 0
1415 158 5 0.145 6.454565743189913 1.0872427407228418 20.758236077487155 0 0 0
232 26 2 0.06 7.177564511594708 12.892400185645512 22.903102714999005 0 0 0
253 29 1 -0.18 5.187918098780315 9.888525231417917 23.843877851641405 0 0 0
254 29 5 0.145 4.290107227660247 10.095304980437756 22.61956840555552 0 0 0
255 29 3 -0.6830000000000001 3.477372508937595 8.96613472104211 22.38462828658242 0 0 0
256 29 2 0.06 5.772643095658012 8.972362125716694 23.7622456552616 0 0 0
257 29 2 0.06 4.600662757116641 9.834040871007298 24.75977063758658 0 0 0
258 29 2 0.06 5.889312018220253 10.71628728289987 23.95400526101422 0 0 0
259 29 2 0.06 4.894964735441896 10.295934864882746 21.737174119201065 0 0 0
260 29 2 0.06 3.6427059170408795 10.955992233101938 22.7726310740703 0 0 0
261 29 4 0.418 2.885682399483148 8.872453411666012 23.138912674685738 0 0 0
484 54 2 0.06 6.963373295014719 9.097332084863584 21.460068894701095 0 0 0
1163 130 5 0.145 14.794792437810646 7.16183242847014 26.522033482827617 0 0 0
1989 221 4 0.418 13.491363326990198 14.464632088905928 26.507078238707333 0 0 0
2164 241 2 0.06 10.867086346230321 1.6314833674960671 25.96092806426091 0 1 0
546 61 2 0.06 1.3467425553388408 8.651425307374494 20.669090262892215 0 0 0
226 26 1 -0.18 5.279818000741934 13.782938228350433 23.47960292636921 0 0 0
583 65 2 0.06 8.049775142792052 6.350627559413863 21.455017671250562 0 0 0
716 80 2 0.06 3.782728150571568 7.0703485493110545 24.40017606656975 0 0 0
720 80 4 0.418 0.8023936651283287 9.065273048617653 24.458132670726563 0 0 0
1261 141 1 -0.18 1.878207715861717 12.881546613415319 21.382600150918826 0 0 0
1262 141 5 0.145 2.877957883984262 12.841830235892761 20.22268374977202 0 0 0
1263 141 3 -0.6830000000000001 3.6588272176272083 14.01812744129661 20.206458261148583 0 0 0
1264 141 2 0.06 1.1942515476768512 13.722338604625188 21.27840241243593 0 0 0
1265 141 2 0.06 2.384190842153134 12.974488063493592 22.34339386337942 0 0 0
1266 141 2 0.06 1.2806291580006848 11.970353294931334 21.407817353954133 0 0 0
2165 241 2 0.06 12.251143206849504 0.5359812949156629 25.984916879735973 0 1 0
1268 141 2 0.06 3.537510892617202 11.97659565424188 20.301690574356655 0 0 0
1269 141 4 0.418 4.4914207813893094 13.81892738931006 20.659646421678534 0 0 0
1612 180 1 -0.18 8.26521625660602 10.805638838145226 26.304618705988812 0 0 0
1613 180 5 0.145 9.027724706191977 9.644587772423934 26.948315117534666 0 0 0
1615 180 2 0.06 8.732225507302564 11.765373624675531 26.52739785359099 0 0 0
1616 180 2 0.06 7.231905472050051 10.83309609186737 26.648693248201194 0 0 0
1617 180 2 0.06 8.244496047395687 10.694835495832164 25.219651291255474 0 0 0
1618 180 2 0.06 10.030113502848454 9.573946496681828 26.5291677684309 0 0 0
1619 180 2 0.06 8.527740749730917 8.69971043017454 26.734643410827992 0 0 0
1693 189 1 -0.18 6.077111631731757 13.332519235021461 27.66140227756157 0 0 0
1411 157 2 0.06 13.246046568841562 10.276445717119296 29.690141793515927 0 0 -1
1085 121 2 0.06 14.463423292845713 8.112530194805936 22.357922994285214 0 0 0
1696 189 2 0.06 6.166364792442911 13.034428619811214 26.617089533028082 0 0 0
1697 189 2 0.06 5.089134175004429 13.034073106993942 28.011383339810088 0 0 0
1698 189 2 0.06 6.821209847353014 12.775067388469463 28.23171459917166 0 0 0
908 101 2 0.06 9.721261918732491 14.272083664387358 27.972121506260155 0 0 0
233 26 2 0.06 7.059816598793886 14.61035334374737 22.55930978279834 0 0 0
234 26 4 0.418 6.8613499431959415 13.443142962081316 20.67064099530889 0 0 0
479 54 5 0.145 7.899599773839515 9.631789797678023 21.615742664316773 0 0 0
480 54 3 -0.6830000000000001 8.424657489201241 9.289827796926957 22.883577556755135 0 0 0
485 54 2 0.06 7.671532538881954 10.697653829516273 21.602139384842964 0 0 0
486 54 4 0.418 8.188553091485065 8.369777930247876 23.074123592353203 0 0 0
721 81 1 -0.18 13.143095609903284 10.534728071264253 26.76649929324987 0 0 0
722 81 5 0.145 12.164794221600257 11.67860826657328 26.491560470449855 0 0 0
723 81 3 -0.6830000000000001 12.882844977902716 12.831636289176219 26.113153666858025 0 0 0
724 81 2 0.06 13.889182751847144 10.824074112121098 27.504077260379738 0 0 0
725 81 2 0.06 13.676050091875329 10.237215361874252 25.86272275800267 0 0 0
726 81 2 0.06 12.616576517233186 9.656212818773284 27.138565840192776 0 0 0
727 81 2 0.06 11.569749728313823 11.892439577011052 27.378640184784867 0 0 0
728 81 2 0.06 11.47525716726235 11.410917145288877 25.691549354566526 0 0 0
729 81 4 0.418 13.317065572866303 12.624239840746647 25.279789388053068 0 0 0
1694 189 5 0.145 6.291577009163907 14.839063926837792 27.82208530887613 0 0 0
1538 171 2 0.06 13.625046908955087 3.853694331405434 21.366547984102137 0 0 0
229 26 2 0.06 4.715094330668802 12.853698786209494 23.5068686297313 0 0 0
907 101 2 0.06 9.545586963831628 13.399815361851857 29.479719752822675 0 0 0
1065 119 3 -0.6830000000000001 14.14978597920493 12.225431288186563 23.680091356874193 0 0 0
584 65 2 0.06 7.746582083481374 4.927756658848104 22.430144996832823 0 0 0
1071 119 4 0.418 13.437587112667092 12.530296970927104 23.10100195750227 0 0 0
1255 140 2 0.06 10.281101202193945 14.266047263672455 23.89577464584357 0 0 0
1119 125 3 -0.6830000000000001 10.825890713673141 7.827768435927425 29.25229128591509 0 0 0
1123 125 2 0.06 11.26131829112857 7.459902611021515 27.272206233311895 0 0 0
2163 241 3 -0.6830000000000001 10.872227606415686 0.09042974918209132 23.69472547439802 0 1 0
1257 140 2 0.06 10.140270435242773 14.001240056064743 25.624196511701307 0 0 0
1432 160 1 -0.18 13.2844879004294 13.014597641018486 20.108099964413686 0 0 0
1433 160 5 0.145 12.53881913463672 11.953312615773662 20.920048043067098 0 0 0
1434 160 3 -0.6830000000000001 11.954657511268474 12.533907722564031 22.06480129813118 0 0 0
1435 160 2 0.06 14.04111198588819 13.513526135946385 20.712133673098027 0 0 0
1169 130 2 0.06 14.628424599412506 6.28245485918876 27.143796217541464 0 0 0
478 54 1 -0.18 8.8935007120001 9.296091958092077 20.49881752649526 0 0 0
1438 160 2 0.06 13.215986936630518 11.164490403226305 21.239740926350027 0 0 0
1439 160 2 0.06 11.765499682523938 11.474054726957585 20.323088355029547 0 0 0
1440 160 4 0.418 11.488032499414322 11.821378933313559 22.527088699718874 0 0 0
1834 204 2 0.06 13.785659002088293 9.052262763376229 20.18494443200482 0 0 0
1559 174 5 0.145 11.735969892960874 9.250405604496956 23.631121105530248 0 0 0
1560 174 3 -0.6830000000000001 10.902447438612139 10.321206095395386 23.224522119538545 0 0 0
1562 174 2 0.06 10.677497273658071 7.6871917064355575 22.5419282530097 0 0 0
1564 174 2 0.06 12.760512022372511 9.607573749698734 23.73264334137071 0 0 0
1565 174 2 0.06 11.418124914858701 8.894967185935297 24.610607253146416 0 0 0
1566 174 4 0.418 9.995788504278286 9.986254572866185 23.17360684201209 0 0 0
1614 180 3 -0.6830000000000001 9.128859023417494 9.822185655911593 28.34883431840408 0 0 0
1620 180 4 0.418 9.700859579289252 9.1198843670868 28.678058878528226 0 0 0
902 101 5 0.145 9.861503802722304 14.348664244059906 29.04960303703186 0 0 0
1537 171 2 0.06 13.35561858886786 5.201322807707657 20.277537602548072 0 0 0
481 54 2 0.06 9.078104728020575 8.224289783973063 20.427081066885346 0 0 0
1170 130 4 0.418 13.59776668076735 6.33456743860521 25.237186555593905 0 0 0
1145 128 5 0.145 14.292734152230853 3.7436496800786245 25.233715874489814 0 0 0
1148 128 2 0.06 14.738649806899783 2.9186936429232513 23.266020316699194 0 0 0
1164 130 3 -0.6830000000000001 13.773695748138152 7.2312308729860835 25.54595518104767 0 0 0
231 26 2 0.06 5.584492369400785 14.006285181631748 24.502446685910602 0 0 0
1070 119 2 0.06 14.59155183246409 14.159980293180112 24.178363460360355 0 0 0
2176 242 2 0.06 14.383225300882474 0.6625380503519702 24.42532563917199 0 1 0
1150 128 2 0.06 14.837898141680315 4.205404788007882 26.05575402305212 0 0 0
1168 130 2 0.06 14.723399016817428 8.031246115195234 27.171840617493316 0 0 0
2161 241 1 -0.18 11.164456418059485 0.5864231119252643 26.056562421679438 0 1 0
1532 171 5 0.145 13.95023838716676 4.300348907780043 20.427787517633288 0 0 0
963 107 4 0.418 0.12573810598457946 14.5866080323812 23.472870733785047 1 0 0
1004 112 2 0.06 4.26339022567938 10.260243634411335 29.198595413304062 0 0 -1
2146 239 2 0.06 6.552096553818663 0.1179987714070578 23.51296417796529 0 1 0
2148 239 2 0.06 5.446645329995679 0.004638321211877379 24.873135455352724 0 1 0
2166 241 2 0.06 10.88292714097 0.2607442077238179 27.05865733789844 0 1 0
1408 157 2 0.06 14.760687937777996 8.288513620513688 29.870886489384862 0 0 -1
1421 158 2 0.06 6.254262697877785 0.059752511110040984 21.06341181962665 0 0 0
1005 112 2 0.06 3.003425645051887 11.233240299395094 29.949339037777367 0 0 -1
118 14 1 -0.18 3.5665790589969806 18.27657308898096 4.162563076845086 0 0 0
119 14 5 0.145 4.855514677595211 18.050031869615847 3.36629636826445 0 0 0
120 14 3 -0.6830000000000001 5.3777400664833035 19.269455835679008 2.891875123660139 0 0 0
121 14 2 0.06 2.800734973110446 18.75056468741292 3.547558624975811 0 0 0
122 14 2 0.06 3.7427717145240904 18.9078281671907 5.033309069386574 0 0 0
123 14 2 0.06 3.1647283729425526 17.326907590342515 4.5189425304777515 0 0 0
124 14 2 0.06 4.674843879684022 17.387087419961325 2.5205129584717323 0 0 0
125 14 2 0.06 5.611677109957772 17.581866606225372 3.992310525461213 0 0 0
126 14 4 0.418 6.210988911365696 19.067789458019615 2.460309768332276 0 0 0
775 87 1 -0.18 6.118955858705145 16.1529582992603 6.693878950659737 0 0 0
128 15 5 0.145 3.0167845959892174 17.803720280853977 8.828221616315455 0 0 0
1126 126 1 -0.18 2.663832174705085 22.395133304500764 9.81474207959578 0 0 0
780 87 2 0.06 5.354592043520606 16.509494163393494 6.004640336506641 0 0 0
1278 142 4 0.418 3.1790468773426266 15.081605035957596 8.291740876985909 0 0 0
133 15 2 0.06 3.8414121462645308 17.720921543714592 8.120836507802851 0 0 0
134 15 2 0.06 2.296021566904621 18.50359856236444 8.405506291357277 0 0 0
576 64 4 0.418 10.90769503749225 21.458324886826304 0.38316740341036 0 0 1
137 16 5 0.145 7.392704608925497 15.067633659066498 2.8840670875821695 0 0 0
140 16 2 0.06 5.961249565120711 15.530411265572917 1.3077697924565892 0 0 0
129 15 3 -0.6830000000000001 2.3966508330247334 16.541972586500737 8.988762611114694 0 0 0
2222 247 2 0.06 11.070626167584956 23.997393976929896 3.380037623448498 0 0 0
244 28 1 -0.18 6.907594477785164 22.152567704640447 5.437369931902999 0 0 0
245 28 5 0.145 5.558501965582809 21.433444533633253 5.5117648370406025 0 0 0
246 28 3 -0.6830000000000001 4.718827496941171 22.03154116200221 6.481501992966162 0 0 0
247 28 2 0.06 7.4390712395995395 22.120815413512805 6.388447676007044 0 0 0
248 28 2 0.06 6.785633569168838 23.19547214925828 5.146344849650862 0 0 0
249 28 2 0.06 7.546291598504975 21.68194083985405 4.6896255105939 0 0 0
250 28 2 0.06 5.7045171549132645 20.382264552051108 5.760223628568255 0 0 0
251 28 2 0.06 5.064264307517814 21.468278498858563 4.540508378045295 0 0 0
766 86 1 -0.18 8.790752294225474 19.010946950801042 3.813752185314264 0 0 0
767 86 5 0.145 8.674263895507138 19.278318681047278 2.3112499131993287 0 0 0
768 86 3 -0.6830000000000001 7.782457487366514 18.351969810394756 1.7164368174154006 0 0 0
769 86 2 0.06 9.180070685092563 18.01254427281702 4.013603078555962 0 0 0
770 86 2 0.06 7.8284687069900665 19.11713810526504 4.314278188767113 0 0 0
774 86 4 0.418 7.91564759698799 18.398748470046023 0.7623494085080642 0 0 0
776 87 5 0.145 7.452987216973908 16.874341305904014 6.4721339841298535 0 0 0
778 87 2 0.06 5.744044447451665 16.312956686113676 7.705056902329683 0 0 0
781 87 2 0.06 7.304819273876809 17.953535775563093 6.5022516220149855 0 0 0
2221 247 2 0.06 11.891810461461471 22.514867601935073 3.8459372876504037 0 0 0
572 64 2 0.06 7.511871692758386 22.212173576653154 0.803361501107678 0 0 1
1133 126 2 0.06 1.072365729533494 23.86983469324399 9.768754720031199 0 0 0
1482 165 2 0.06 7.64712111606717 25.183906028000628 6.245344323798857 0 0 0
1384 154 2 0.06 12.900953521139618 17.27454646609937 4.416546015993676 0 0 0
2152 240 1 -0.18 6.573159702222489 20.230487993305445 8.934469821993332 0 0 0
779 87 2 0.06 6.210631202646498 15.080797472607633 6.53847079865599 0 0 0
2155 240 2 0.06 5.6167435425176695 19.917624940815024 8.517194023107386 0 0 0
2156 240 2 0.06 7.284444642885653 20.29459061303397 8.11332750373366 0 0 0
1 1 1 -0.18 12.689793103521655 19.157223604410685 1.2413546949953134 0 0 0
942 105 2 0.06 10.590913091652235 16.83445128892209 9.707101321269437 0 0 0
14 2 2 0.06 9.523512597583863 23.829152035778403 8.893534094204814 0 0 0
4 1 2 0.06 11.921753196039075 18.41671067087867 1.0159915162796345 0 0 0
5 1 2 0.06 12.291076827027286 19.847508071282437 1.9856974665319027 0 0 0
6 1 2 0.06 13.532818704655579 18.63118276102064 1.6911892405920685 0 0 0
2218 247 2 0.06 10.71931517081667 22.56998159718914 6.086459209713345 0 0 0
8 1 2 0.06 13.946105955738776 20.592034779344647 0.19592976683178343 0 0 0
568 64 1 -0.18 8.113122654516076 23.07540933662085 0.5161944946644376 0 0 1
2220 247 2 0.06 11.619845939400241 24.063703421876966 5.827582878342123 0 0 0
138 16 3 -0.6830000000000001 8.486204528618428 15.706889693361207 2.2545803211620847 0 0 0
590 66 2 0.06 11.746413929579234 15.183497140611735 3.8493573050022905 0 0 0
143 16 2 0.06 6.956112794943886 15.745055822611747 3.613824665474566 0 0 0
144 16 4 0.418 8.27200077926702 16.643004419088204 2.1802239385926723 0 0 0
334 38 1 -0.18 9.915576736309346 19.5045806508853 7.325839395128441 0 0 0
335 38 5 0.145 11.276077765692365 20.05102374323521 7.751760335628999 0 0 0
336 38 3 -0.6830000000000001 11.12666681060449 21.11780303667867 8.665509459850025 0 0 0
337 38 2 0.06 9.314759364693817 20.272122229399766 6.837398540765094 0 0 0
338 38 2 0.06 9.362644085926071 19.12247828261163 8.182543736010484 0 0 0
339 38 2 0.06 10.037500989263535 18.681923097995742 6.620575099814364 0 0 0
340 38 2 0.06 11.824790588683275 20.411074874448833 6.881950084838326 0 0 0
341 38 2 0.06 11.871454313559626 19.26172997176873 8.209124034865631 0 0 0
342 38 4 0.418 11.97889962115301 21.572636802400492 8.687154054985577 0 0 0
909 101 4 0.418 8.952689510968245 15.284821834507596 0.5058659095842841 0 0 1
588 66 3 -0.6830000000000001 10.855216552176678 15.891097046519615 6.3432339346761335 0 0 0
2154 240 3 -0.6830000000000001 7.20576398524131 17.964447280224153 9.519078627948593 0 0 0
2219 247 2 0.06 9.874150818132094 24.039332581096758 5.60492397603327 0 0 0
1096 122 2 0.06 14.195609834432048 19.343155009756615 8.429979939519823 0 0 0
594 66 4 0.418 10.026338729055299 16.091633042475546 6.796890649526856 0 0 0
771 86 2 0.06 9.475004215697618 19.726079900369413 4.272452387238619 0 0 0
772 86 2 0.06 9.653105688909367 19.19124909776592 1.8400236987381438 0 0 0
773 86 2 0.06 8.319972733406088 20.293214739241517 2.130498292158705 0 0 0
777 87 3 -0.6830000000000001 8.383470886706633 16.523930604836384 7.475973083049919 0 0 0
783 87 4 0.418 8.095643444895869 16.998706143052278 8.263589390255731 0 0 0
1131 126 2 0.06 2.65745379184187 22.150375621453794 8.752201298043735 0 0 0
941 105 2 0.06 11.793501215958642 15.603265226562293 9.346720853460917 0 0 0
570 64 3 -0.6830000000000001 10.200648386364533 21.91472983907117 0.8633707836007413 0 0 1
1209 135 3 -0.6830000000000001 13.657527352571547 22.19841532859857 8.473944084002383 0 0 0
1215 135 4 0.418 14.403033448083137 21.662044802547694 8.175504624190546 0 0 0
1378 154 1 -0.18 14.820685306550336 18.174716147090574 4.851504983464953 0 0 0
1379 154 5 0.145 13.406574290254115 17.75122931801868 5.256037589677693 0 0 0
1380 154 3 -0.6830000000000001 13.451480935362259 16.844304957976963 6.337898948127327 0 0 0
2216 247 5 0.145 10.981047193846168 23.096828707696105 3.987356645985168 0 0 0
135 15 4 0.418 1.5531832868643773 16.680561460077524 9.401837625506294 0 0 0
1383 154 2 0.06 14.789560483622504 18.87235203434379 4.013482584404715 0 0 0
1385 154 2 0.06 12.80862437164692 18.61685868153411 5.538070185320769 0 0 0
1386 154 4 0.418 12.557407461271344 16.48507030764709 6.422713739875144 0 0 0
2157 240 2 0.06 6.446734680940524 21.238156673133474 9.331549886674168 0 0 0
2217 247 3 -0.6830000000000001 9.877420928997294 22.34584152940531 3.5348825179757535 0 0 0
2223 247 4 0.418 9.975172655595173 22.209679148796273 2.5847549827048697 0 0 0
252 28 4 0.418 3.8668560652408495 21.627162860348726 6.403396450803775 0 0 0
10 2 1 -0.18 9.430969489869948 24.195418085885603 9.916343277290068 0 0 0
1109 124 5 0.145 7.375545168580896 28.30909100871154 9.9006997505927 0 0 0
2215 247 1 -0.18 10.787358163469435 23.461604238579547 5.462697181602463 0 0 0
1709 190 2 0.06 14.655952310385308 15.32454400545323 8.677315642358646 0 0 0
782 87 2 0.06 7.867342318009316 16.624616558404384 5.497334141078954 0 0 0
1116 124 4 0.418 6.7903199548397115 26.462980533340247 9.887844695077177 0 0 0
1477 165 1 -0.18 7.301053833876737 25.63432580772616 7.176085979077788 0 0 0
1478 165 5 0.145 6.15238109997868 24.82003530344809 7.780717773762441 0 0 0
1479 165 3 -0.6830000000000001 5.621856826692237 25.461729581442835 8.925303959306026 0 0 0
1483 165 2 0.06 6.49313976577965 23.820028900111726 8.050801411718473 0 0 0
1484 165 2 0.06 5.358607119528349 24.7002878317694 7.04481727065659 0 0 0
1485 165 4 0.418 4.8513047256204995 24.971115456368725 9.184573870146135 0 0 0
1953 217 4 0.418 14.703739018457359 27.402362619283572 7.139302028935929 0 0 0
571 64 2 0.06 8.25704771949659 23.694472327874056 1.4029753805776324 0 0 1
333 37 4 0.418 14.7638977963188 29.043595692452183 8.906056574692423 0 0 0
1115 124 2 0.06 7.389241532753731 28.263191759645178 8.812378811123013 0 0 0
1207 135 1 -0.18 12.856433029724794 24.458804699097854 8.689704172431354 0 0 0
1208 135 5 0.145 13.862360800416987 23.5207475285218 8.022819444263158 0 0 0
1210 135 2 0.06 12.934319594396195 24.42011178150647 9.7764704644835 0 0 0
1211 135 2 0.06 11.836903263159222 24.20490349616161 8.404118309452533 0 0 0
1212 135 2 0.06 13.03686066468886 25.488109726516438 8.383452489110482 0 0 0
1213 135 2 0.06 14.878325803897503 23.83449064608037 8.255933302889979 0 0 0
1214 135 2 0.06 13.757128415872646 23.552044238089636 6.939562329900375 0 0 0
1480 165 2 0.06 8.157400048120277 25.679122850881082 7.847129593752656 0 0 0
1481 165 2 0.06 6.9907434119261636 26.654455148381846 6.94882215734845 0 0 0
1792 200 1 -0.18 10.300259676672827 27.80931333043493 7.726017615673935 0 0 0
1793 200 5 0.145 11.619585394346043 28.437130412868232 8.181834518876116 0 0 0
1794 200 3 -0.6830000000000001 11.386512821260935 29.38165353799706 9.205555194754892 0 0 0
1795 200 2 0.06 9.610766109552724 28.564001655979574 7.346125944698668 0 0 0
1796 200 2 0.06 9.812134026525914 27.285151899779688 8.547302914774182 0 0 0
1797 200 2 0.06 10.474453681429356 27.08418740054218 6.929532768498389 0 0 0
1798 200 2 0.06 12.123140786525468 28.9262868272711 7.347232732911081 0 0 0
1799 200 2 0.06 12.297676405716231 27.67237246677667 8.559165855011956 0 0 0
1800 200 4 0.418 12.256667867521124 29.69878517143056 9.476293321516426 0 0 0
1945 217 1 -0.18 14.81687131218013 25.482722037735737 4.523201006191869 0 0 0
940 105 2 0.06 10.10853310158156 15.15075928938289 9.637069860402987 0 0 0
1947 217 3 -0.6830000000000001 14.312784989543852 26.857080241728024 6.445904839571212 0 0 0
1948 217 2 0.06 14.186210721625427 26.0707049198201 3.8558667300014706 0 0 0
1949 217 2 0.06 14.220603239194128 24.653774381198836 4.9028993553775955 0 0 0
937 105 1 -0.18 10.910462910486615 15.819359873803268 9.949445091139902 0 0 0
1132 126 2 0.06 0.5075446676509683 22.22319685208528 9.996181479867598 0 0 0
15 2 2 0.06 9.947647690111452 25.153424472504145 9.972582422078744 0 0 0
1130 126 2 0.06 3.444667152542923 23.137370703860185 9.974650077239579 0 0 0
21 3 3 -0.6830000000000001 7.094206285236194 21.5799429482707 19.8651914820324 0 0 0
1913 213 2 0.06 9.486830690614322 29.420757858920986 12.037032622764313 0 0 0
27 3 4 0.418 7.585020878706323 21.85831755399175 19.087432625987184 0 0 0
1128 126 3 -0.6830000000000001 1.2767406122178573 23.124111847017456 11.658672690476957 0 0 0
604 68 1 -0.18 0.02105431156121847 26.263904319912108 11.990913766279286 0 0 0
442 50 1 -0.18 3.9709998065659673 20.151733795150623 13.064087551584828 0 0 0
443 50 5 0.145 4.347321654059578 21.04358974259863 14.249032380697823 0 0 0
444 50 3 -0.6830000000000001 5.691443107653379 20.832962514770557 14.646088879794437 0 0 0
445 50 2 0.06 4.035826434947202 19.094234068305635 13.318879478987341 0 0 0
446 50 2 0.06 4.6174957895169415 20.33811057810139 12.206918115136627 0 0 0
447 50 2 0.06 2.944695800047416 20.348980229050067 12.75091320089017 0 0 0
448 50 2 0.06 3.6841012474450436 20.84040122825744 15.089433029650834 0 0 0
449 50 2 0.06 4.217246446627816 22.092493160581455 13.985270579495808 0 0 0
450 50 4 0.418 6.265607568298809 21.21555898098039 13.968154059881034 0 0 0
829 93 1 -0.18 5.912651517780167 17.503045106579393 17.44943853796019 0 0 0
830 93 5 0.145 6.06215565632667 18.996219340562014 17.759167329685216 0 0 0
831 93 3 -0.6830000000000001 6.878089518954367 19.652315678876707 16.80683159750096 0 0 0
833 93 2 0.06 5.312690274965025 17.32414846683134 16.559247798641437 0 0 0
834 93 2 0.06 5.414240706799278 16.989684078093592 18.27031396972778 0 0 0
836 93 2 0.06 5.085614629683275 19.477050652580107 17.788692789499773 0 0 0
837 93 4 0.418 6.339290272300577 19.914067001659095 16.050236594448425 0 0 0
966 108 3 -0.6830000000000001 7.377227756115675 21.970184537293722 12.747437894709423 0 0 0
972 108 4 0.418 8.058562543733448 21.923883530988384 12.065054442923524 0 0 0
987 110 2 0.06 0.8715187863010382 20.865971534695714 17.27610154231398 1 0 0
2211 246 2 0.06 11.25307647068424 23.694283012450036 17.608046569015883 0 0 0
1108 124 1 -0.18 6.1387301035227715 29.074363158177096 10.381105326713252 0 0 0
2112 235 2 0.06 13.30872009555513 28.983437819786467 18.323967160289474 0 -1 0
609 68 2 0.06 0.04451742130731227 27.297096622230516 12.33950818724521 0 0 0
1134 126 4 0.418 0.4158143686029441 23.498206637309796 11.874790494052814 0 0 0
1911 213 3 -0.6830000000000001 9.30729082812807 26.704685989836946 12.385006361744752 0 0 0
1916 213 2 0.06 10.477673827801823 27.39430836553464 10.858615455687373 0 0 0
1332 148 4 0.418 7.939038989477305 21.028297080496575 17.230699619754045 0 0 0
1370 153 5 0.145 4.451859689100966 22.707080093678222 18.169765446285606 0 0 0
1371 153 3 -0.6830000000000001 4.5763605259473845 22.870807665005604 16.77116955867666 0 0 0
1375 153 2 0.06 4.477979976575739 21.645695536634296 18.411611480634424 0 0 0
1376 153 2 0.06 5.307258964584282 23.168217914023202 18.6616784465525 0 0 0
1377 153 4 0.418 5.317550452071453 22.34442111799344 16.478854107227107 0 0 0
2160 240 4 0.418 7.306430802540221 17.354058965770875 10.26140790572066 0 0 0
223 25 2 0.06 14.996266029834223 28.61351370735425 13.759084563207693 0 0 0
1901 212 5 0.145 3.205701137457106 15.312979279640821 12.10892221431637 0 0 0
1902 212 3 -0.6830000000000001 3.4768701949511818 16.373816847628625 13.003560028146856 0 0 0
1906 212 2 0.06 2.1608310824572734 15.362754898247735 11.803337034635092 0 0 0
1907 212 2 0.06 3.812359587593552 15.431322200062404 11.211976516836916 0 0 0
1908 212 4 0.418 4.420373894851287 16.39066208204816 13.177201281284402 0 0 0
2036 227 5 0.145 6.589595256533299 17.65091186949324 13.904222258902545 0 0 0
2037 227 3 -0.6830000000000001 6.133150523800444 16.30816351750487 13.877210079844557 0 0 0
2041 227 2 0.06 6.442570153128498 18.10772106921102 12.926407126021475 0 0 0
2042 227 2 0.06 5.983723485690021 18.217958983545735 14.606257051625956 0 0 0
2043 227 4 0.418 6.069804172618915 16.008192205880757 14.780630776781088 0 0 0
2089 233 1 -0.18 2.453240892302285 17.94146714968104 16.452208367708007 0 0 0
2090 233 5 0.145 2.122810312621869 16.498855010919115 16.05747751444557 0 0 0
2091 233 3 -0.6830000000000001 1.403103634307721 16.466449517196157 14.843623702967202 0 0 0
2092 233 2 0.06 1.5460691357798082 18.53523790846012 16.5526356448701 0 0 0
2093 233 2 0.06 3.092358976819865 18.41861368479465 15.708964951035778 0 0 0
2094 233 2 0.06 2.976763720889652 17.966894540259382 17.40840298028303 0 0 0
2095 233 2 0.06 1.5340701719986714 16.02233377846202 16.84056332639792 0 0 0
2096 233 2 0.06 3.0347532819173058 15.917600644374668 15.931531964214527 0 0 0
2097 233 4 0.418 2.0466222863637222 16.48694783088468 14.12912506038638 0 0 0
876 98 3 -0.6830000000000001 13.259698961615793 19.479363364017104 12.4387580953975 0 0 0
2158 240 2 0.06 6.343785109495696 19.258095169735615 10.85362332500199 0 0 0
454 51 2 0.06 13.187179914445002 22.976635310487655 16.343557240657812 0 0 0
209 24 5 0.145 12.041349142840751 20.61169200663555 19.941197799605522 0 0 0
11 2 5 0.145 10.020600552809707 23.203754302151605 10.922504061559405 0 0 0
12 2 3 -0.6830000000000001 9.398758830295472 21.941430326063262 10.781730549172554 0 0 0
2210 246 2 0.06 12.036989506747577 25.131697046797022 18.25470455761378 0 0 0
17 2 2 0.06 11.091618363110491 23.08410442735899 10.75868617210022 0 0 0
222 25 2 0.06 14.436942661066825 26.65234160534853 12.299289860457263 0 0 0
49 6 2 0.06 13.948796359587643 18.38405432995836 18.738061855896895 0 0 0
2207 246 5 0.145 10.264603263301053 24.491428836956842 19.360616313989162 0 0 0
210 24 3 -0.6830000000000001 13.297604523261686 21.160721003426474 19.58693414949015 0 0 0
214 24 2 0.06 11.252482656194154 21.20628925535333 19.48225958766341 0 0 0
216 24 4 0.418 13.996978734272023 20.544231649196647 19.811860285069997 0 0 0
451 51 1 -0.18 13.26665186530399 21.889574368142643 16.297609789421028 0 0 0
452 51 5 0.145 12.889281152591796 21.34852434168704 14.919984217826746 0 0 0
453 51 3 -0.6830000000000001 13.651391269959891 21.962683221668666 13.900489602860628 0 0 0
455 51 2 0.06 14.287267124445076 21.61379027398464 16.574290734541204 0 0 0
456 51 2 0.06 12.611190658401746 21.482732276659473 17.070571979553456 0 0 0
457 51 2 0.06 11.834727935924645 21.522949390957464 14.724667604146623 0 0 0
458 51 2 0.06 13.05052620717743 20.27560964554926 14.907638264761825 0 0 0
459 51 4 0.418 14.587597172042939 21.877733284872196 14.122534478873648 0 0 0
2159 240 2 0.06 8.007026634654842 19.6113583837862 10.43901718873222 0 0 0
473 53 2 0.06 14.867413441874918 18.789179257692503 15.458763349047139 0 0 0
474 53 2 0.06 14.070351711244001 17.47177550088501 14.603887853309725 0 0 0
476 53 2 0.06 14.720673233166336 16.735815246281245 16.92157683371563 0 0 0
703 79 1 -0.18 10.541795294929132 19.06756937344297 16.789089208402128 0 0 0
704 79 5 0.145 11.372181146251293 18.004013026389963 16.068076379905516 0 0 0
705 79 3 -0.6830000000000001 10.848640455507688 16.71737910947517 16.316364931756908 0 0 0
706 79 2 0.06 10.591902858383971 18.944548333902166 17.8677099877862 0 0 0
707 79 2 0.06 9.494468916458803 19.028942697921792 16.494391871526933 0 0 0
708 79 2 0.06 10.906961119025489 20.06548997472272 16.560464132018204 0 0 0
709 79 2 0.06 12.408481409659286 18.038633318490486 16.402760062276283 0 0 0
710 79 2 0.06 11.372927445672179 18.18463160734186 14.993767586396089 0 0 0
711 79 4 0.418 11.332477411438724 16.109316323516325 15.743468984420801 0 0 0
132 15 2 0.06 3.9331436906149615 19.331204434097316 10.062620486970713 0 0 0
608 68 2 0.06 0.9089972624584775 25.765744958908037 12.376512985607546 0 0 0
131 15 2 0.06 2.746795164432199 18.361466571244396 10.922798315188372 0 0 0
832 93 2 0.06 6.878601220832405 17.01927560628805 17.311423041629972 0 0 0
835 93 2 0.06 6.511785130152878 19.116916510118163 18.74316491048597 0 0 0
874 98 1 -0.18 10.859409269388859 19.288059426360153 12.184709962409123 0 0 0
1910 213 5 0.145 10.431441119603067 27.444941776653476 11.944766393048292 0 0 0
2206 246 1 -0.18 11.516755356507007 24.214572643444242 18.528264054840104 0 0 0
877 98 2 0.06 10.633635274401588 20.07429660373742 12.90499801369259 0 0 0
878 98 2 0.06 10.833437501269788 18.331791876468372 12.70426768608828 0 0 0
879 98 2 0.06 10.057983697374727 19.279569718044996 11.446599160418813 0 0 0
882 98 4 0.418 13.367054978659771 20.359690009421715 12.800214068668325 0 0 0
750 84 3 -0.6830000000000001 12.191235703924503 15.066003377269137 14.54334454662668 0 0 0
938 105 5 0.145 11.199567299082585 15.690489903062305 11.449175622902102 0 0 0
1909 213 1 -0.18 10.370036589239875 28.906134631247596 12.413599677768618 0 0 0
347 39 2 0.06 4.143529453076298 18.658905598931256 19.894435735242244 0 0 0
943 105 2 0.06 10.297953460795618 15.925525312127009 12.01525569878707 0 0 0
944 105 2 0.06 11.962800598919344 16.411613041615997 11.741354067742927 0 0 0
2213 246 2 0.06 9.545794987351199 25.08219888091903 18.792232711406644 0 0 0
880 98 2 0.06 12.224726009681715 20.490117454702897 10.999719055213863 0 0 0
1183 132 2 0.06 14.400088658221671 23.995475186399638 17.950188322948954 0 0 0
1185 132 2 0.06 14.750350551253824 23.765136069359016 19.651898015526466 0 0 0
1325 148 5 0.145 8.85085917403956 22.317976132740597 16.133054762867037 0 0 0
1326 148 3 -0.6830000000000001 8.316939750566597 21.905962092077175 17.37560992780816 0 0 0
1330 148 2 0.06 9.929113591126093 22.171368812523085 16.13353926527232 0 0 0
1331 148 2 0.06 8.438148175283247 21.681461241602864 15.349988807664703 0 0 0
1424 159 5 0.145 9.041133013067336 17.087012177572266 19.300485752020826 0 0 0
1425 159 3 -0.6830000000000001 9.17335527086848 15.999452885283352 18.406118221530974 0 0 0
1917 213 4 0.418 8.632403983925105 26.770621677784963 11.69431048925896 0 0 0
1429 159 2 0.06 10.028866811724926 17.388893301980996 19.64611481061463 0 0 0
1430 159 2 0.06 8.618289747102391 17.936043412028205 18.765912531091438 0 0 0
1431 159 4 0.418 9.730437828655269 16.29364347498568 17.67373831189784 0 0 0
1848 206 3 -0.6830000000000001 7.3740257022994165 16.013120729098887 11.40790249429621 0 0 0
1854 206 4 0.418 6.979150122175699 16.03238454383903 12.285679116256228 0 0 0
2035 227 1 -0.18 8.06924928657843 17.7189152025856 14.292465023236312 0 0 0
2038 227 2 0.06 8.70141385613777 17.17126093959383 13.593648550585508 0 0 0
2039 227 2 0.06 8.24021437070421 17.313187228734925 15.29019568037201 0 0 0
2040 227 2 0.06 8.410036319378026 18.755398200483032 14.29978243840568 0 0 0
1368 152 4 0.418 8.643441930732378 27.078339988617177 14.025840936353033 0 0 0
2209 246 2 0.06 12.214213792469547 23.579677488247125 19.074516736512162 0 0 0
2212 246 2 0.06 9.78186937950125 23.549319139338177 19.62153997721339 0 0 0
1367 152 2 0.06 7.584368901987583 28.879064000417397 13.53322053022959 0 0 0
607 68 2 0.06 0.09492881451208322 26.2789978324213 10.90344622105178 0 0 0
881 98 2 0.06 12.379982448310377 18.75943584128497 10.738916858765702 0 0 0
1915 213 2 0.06 11.340563554150425 26.97614031956058 12.316217628323336 0 0 0
1366 152 2 0.06 6.916208698341502 28.97539110612804 15.150847654476378 0 0 0
218 25 5 0.145 14.158780556275703 28.660728913774292 13.063689287559793 0 0 0
1392 155 2 0.06 10.790920461795029 28.242203897986588 19.506522799270112 0 0 0
46 6 1 -0.18 14.301147764336983 17.923536608240465 19.661415708158042 0 0 0
883 99 1 -0.18 6.179979311523121 25.86633930821134 17.68175700377096 0 0 0
884 99 5 0.145 6.633474299374667 27.307263690123417 17.911063872778442 0 0 0
885 99 3 -0.6830000000000001 7.987217476462916 27.491864024670306 17.532516793756326 0 0 0
888 99 2 0.06 5.16167332766886 25.72604679758735 18.0454130868429 0 0 0
889 99 2 0.06 6.5192846465516565 27.569174942530346 18.961964340029184 0 0 0
890 99 2 0.06 6.001767073584145 27.985097586369147 17.336564959589307 0 0 0
891 99 4 0.418 8.054296755047904 27.360341497114423 16.576291256565067 0 0 0
964 108 1 -0.18 5.835749869425204 23.47247488990028 11.627530313161806 0 0 0
965 108 5 0.145 6.861416424064026 23.290731998261467 12.74679220587659 0 0 0
967 108 2 0.06 4.991816102253099 22.795203421891546 11.752506600247989 0 0 0
968 108 2 0.06 6.278725502412756 23.289887694074178 10.64858491756384 0 0 0
969 108 2 0.06 5.4475144498255395 24.492173082450222 11.631546974949854 0 0 0
970 108 2 0.06 6.388623025504751 23.495831812459407 13.706022379245118 0 0 0
1914 213 2 0.06 11.238011262629337 29.45822659764213 12.051011675889056 0 0 0
1111 124 2 0.06 6.127633152423725 29.178574292743622 11.4651227220906 0 0 0
949 106 2 0.06 14.109088494733694 15.772892145477346 12.601115507510956 0 0 0
1360 152 1 -0.18 5.93943417844026 27.510888037946884 13.891524065995233 0 0 0
1363 152 2 0.06 5.502975046387124 26.93161771361537 14.705425422753024 0 0 0
1364 152 2 0.06 6.180919501314328 26.82452618751737 13.078911014854386 0 0 0
1365 152 2 0.06 5.171021559032088 28.193973712064007 13.528469431077287 0 0 0
1369 153 1 -0.18 3.1436394817629614 23.335778549754497 18.66549853739852 0 0 0
1372 153 2 0.06 2.2795837955384197 22.895344977863942 18.166776611678248 0 0 0
1373 153 2 0.06 3.122814474751519 24.41125493404242 18.486119211228875 0 0 0
1112 124 2 0.06 5.2169272384215795 28.580919320754376 10.073070794229567 0 0 0
1738 194 1 -0.18 1.3545238781765483 24.109684347262974 15.20278405154006 0 0 0
1739 194 5 0.145 2.5999999410455468 24.848787482039235 14.69663598269201 0 0 0
1740 194 3 -0.6830000000000001 3.45154407824826 25.212642115494535 15.764321713554395 0 0 0
1741 194 2 0.06 0.7883530851907877 24.72402098863502 15.903832162669483 0 0 0
1742 194 2 0.06 1.616594082954855 23.175440603519764 15.702278195874674 0 0 0
1743 194 2 0.06 0.6938486174458119 23.862641843129488 14.370982384704698 0 0 0
1744 194 2 0.06 2.302728349184568 25.756598419431644 14.176824504221912 0 0 0
1745 194 2 0.06 3.1515968134447747 24.23519881269354 13.984721074527682 0 0 0
1746 194 4 0.418 3.838614108069514 24.41494424057168 16.13670926552857 0 0 0
127 15 1 -0.18 3.5351011488649484 18.323377849876618 10.170469534611344 0 0 0
16 2 2 0.06 9.88816726366628 23.574367265785046 11.938073880932002 0 0 0
217 25 1 -0.18 14.362574468997758 27.66967212624226 11.913510557371389 0 0 0
1362 152 3 -0.6830000000000001 8.175204926904474 27.393841392763246 14.80842045694628 0 0 0
219 25 3 -0.6830000000000001 14.025935394400218 29.982449406715954 12.581429637970643 0 0 0
130 15 2 0.06 4.3406585782459555 17.696841704702653 10.553976878336577 0 0 0
221 25 2 0.06 13.5291504431417 27.691521673287504 11.20962175513715 0 0 0
1127 126 5 0.145 1.2976650383580068 22.924619953509023 10.26272610441651 0 0 0
1912 213 2 0.06 10.365434456019047 28.984760179546882 13.500172178229457 0 0 0
1374 153 2 0.06 3.019463663584725 23.18490615238388 19.738653780085826 0 0 0
224 25 2 0.06 13.261205798516364 28.40771150147966 13.624356405307244 0 0 0
1114 124 2 0.06 8.278957534011424 28.83346136386899 10.205684540627937 0 0 0
2110 235 2 0.06 12.896919819363342 29.759806289028 16.808093443932982 0 -1 0
797 89 2 0.06 9.981765185733774 29.481612769916698 15.899702044946936 0 0 0
13 2 2 0.06 8.375986637403974 24.38292911165777 10.111773283137232 0 0 0
875 98 5 0.145 12.209007441352444 19.521889678572748 11.498737650038576 0 0 0
2238 249 2 0.06 14.497119610788467 27.475975672858954 16.31364244856052 0 0 0
801 89 4 0.418 7.941127522467133 29.28196872587207 17.523406219701716 0 0 0
886 99 2 0.06 6.820569976034747 25.14968510845475 18.19299541154154 0 0 0
887 99 2 0.06 6.17590956825142 25.620437529175014 16.620962329165256 0 0 0
971 108 2 0.06 7.67683594175133 24.004649239885815 12.634596381003337 0 0 0
1129 126 2 0.06 2.9354394429183253 21.49389199376567 10.363342940967284 0 0 0
51 6 2 0.06 14.319403325295891 16.844302744814083 19.50722034140111 0 0 0
1171 131 1 -0.18 11.517149688880863 26.22101403898269 15.192551524477302 0 0 0
1172 131 5 0.145 11.818141738919746 24.912641830286063 14.454455676395078 0 0 0
1173 131 3 -0.6830000000000001 13.196238833131966 24.801978652933247 14.170650311240127 0 0 0
1174 131 2 0.06 11.76422469984678 27.089512200859723 14.587864507025136 0 0 0
1175 131 2 0.06 12.069046588749242 26.294766238794985 16.128003395774282 0 0 0
1176 131 2 0.06 10.45581791752134 26.28479281600372 15.42876810132988 0 0 0
1177 131 2 0.06 11.254963149293339 24.85180368582309 13.52398984019863 0 0 0
1178 131 2 0.06 11.514285098283903 24.066072099330007 15.067379804699884 0 0 0
1179 131 4 0.418 13.367524752086952 23.894409712475596 13.914231997521675 0 0 0
1324 148 1 -0.18 8.509770321704492 23.78219065208216 15.849389430270266 0 0 0
1327 148 2 0.06 8.91104488022417 24.45084105229187 16.609423487509115 0 0 0
1328 148 2 0.06 7.4312078960492585 23.923214744911437 15.8083309436815 0 0 0
1329 148 2 0.06 8.914780237144498 24.096330295914235 14.886901228555773 0 0 0
1361 152 5 0.145 7.178267702493709 28.285346695286496 14.351469435435877 0 0 0
1110 124 3 -0.6830000000000001 7.399090262680099 26.99115730858069 10.417914569231888 0 0 0
215 24 2 0.06 11.964952929289266 19.605950970972184 19.534574483287 0 0 0
350 39 2 0.06 2.686597499253107 16.61353825548611 19.661078469046423 0 0 0
2107 235 1 -0.18 13.256985887323541 29.948134596915768 17.81953149609316 0 -1 0
2153 240 5 0.145 7.056369932811604 19.27386234250742 10.03103197581652 0 0 0
18 2 4 0.418 9.816770266348497 21.522328015025607 10.022602838046867 0 0 0
19 3 1 -0.18 7.2543995137976065 20.26783538769229 21.885209407418557 0 0 0
20 3 5 0.145 8.009879898091636 20.982703965702196 20.76031309273065 0 0 0
22 3 2 0.06 6.611211570589675 19.47945611024317 21.495244185229808 0 0 0
169 19 2 0.06 6.086936919628633 23.235509524906995 21.938636197584245 0 0 0
1154 129 5 0.145 14.769847208367908 27.739817523014455 20.565736379091756 0 0 0
404 45 2 0.06 5.201679830363403 18.759336351850425 29.201927744481612 0 0 0
280 32 1 -0.18 3.093440334721797 21.490640409550128 22.46974077132897 0 0 0
281 32 5 0.145 3.7239216741216494 21.706013225120085 23.849788079157385 0 0 0
283 32 2 0.06 3.7544246495010487 21.836296612671894 21.674700329250918 0 0 0
284 32 2 0.06 2.1429208854408537 22.01754823513674 22.37942742348442 0 0 0
285 32 2 0.06 2.8987532409168537 20.431210076665785 22.29641647832878 0 0 0
286 32 2 0.06 4.684545547600691 21.194873175853 23.90667313906447 0 0 0
287 32 2 0.06 3.089549922408412 21.289478415780607 24.632448852382463 0 0 0
343 39 1 -0.18 4.076785923297794 17.92079815498281 20.69220779713749 0 0 0
344 39 5 0.145 2.768747026936477 17.127569956042354 20.619205643645028 0 0 0
345 39 3 -0.6830000000000001 1.6553026047337 17.983461455232582 20.793448315096764 0 0 0
346 39 2 0.06 4.171759536367171 18.44768918526039 21.639263831607558 0 0 0
3 1 3 -0.6830000000000001 12.051665191017957 20.601943493363013 29.418030166216298 0 0 -1
348 39 2 0.06 4.933419669652742 17.25162390582013 20.60474424407674 0 0 0
349 39 2 0.06 2.7566254860356407 16.36362416807676 21.396610109500752 0 0 0
402 45 2 0.06 4.930104790326858 21.136995169584722 28.422542394529316 0 0 0
2214 246 4 0.418 10.753944922933934 26.09968044336807 20.303927279264585 0 0 0
397 45 1 -0.18 5.6587285105450285 20.47289225800585 27.955602852353664 0 0 0
398 45 5 0.145 5.2532056318872 19.00809146261297 28.141221811220515 0 0 0
399 45 3 -0.6830000000000001 6.186161106206504 18.153733479078443 27.508106812060472 0 0 0
400 45 2 0.06 5.718785060465325 20.739017203369823 26.899525101191266 0 0 0
401 45 2 0.06 6.626797248657701 20.676019525108448 28.414604516301385 0 0 0
2173 242 2 0.06 14.997423964997237 28.456731202773735 25.45904878272222 0 0 0
403 45 2 0.06 4.264064658044913 18.837932010204522 27.71668211361401 0 0 0
25 3 2 0.06 8.631295909691529 20.273886724077222 20.21275118123901 0 0 0
405 45 4 0.418 6.987747763552772 18.14477434229975 28.051422479659397 0 0 0
631 71 1 -0.18 4.395669813518226 17.807341335075986 24.381687519681776 0 0 0
632 71 5 0.145 5.835362984844531 17.307053585996517 24.219807707062678 0 0 0
633 71 3 -0.6830000000000001 6.766642298390026 18.203065190043493 24.799673415455654 0 0 0
634 71 2 0.06 4.264151965739692 18.795461130333738 23.9444748621783 0 0 0
635 71 2 0.06 4.105166068695663 17.86013154210092 25.430516561718402 0 0 0
636 71 2 0.06 3.6984026325317054 17.1307743584852 23.885772599333308 0 0 0
637 71 2 0.06 6.070295865960529 17.174110675455093 23.163924565841878 0 0 0
638 71 2 0.06 5.948002334084711 16.33571832681981 24.698020902344844 0 0 0
639 71 4 0.418 6.5705131266205905 18.258163423536566 25.739984135356142 0 0 0
1695 189 3 -0.6830000000000001 5.272991197434252 15.552670450626358 27.158018465828995 0 0 0
1140 127 2 0.06 9.181779464258106 21.89900705255638 25.77593663709238 0 0 0
1648 184 1 -0.18 9.476293079436278 19.253035133342635 27.271801196336938 0 0 0
1649 184 5 0.145 9.52445579319193 18.778397940782302 28.72707751261978 0 0 0
1650 184 3 -0.6830000000000001 8.409483869773139 17.962325437289675 29.03300214172951 0 0 0
1651 184 2 0.06 8.548498148417826 19.779696624217586 27.051225297675508 0 0 0
1652 184 2 0.06 9.568596989764142 18.42297123294265 26.572936516230843 0 0 0
1654 184 2 0.06 9.518219098069604 19.639253685176698 29.392836849964034 0 0 0
1656 184 4 0.418 8.725164965601037 17.049120605938725 29.120691990385527 0 0 0
1394 155 2 0.06 8.418475344605048 28.68625511532108 20.15373315350231 0 0 0
359 40 2 0.06 13.801730671750793 23.506630070650314 26.509308359801548 0 0 0
23 3 2 0.06 6.6294743320719105 20.95962279712241 22.446277015335806 0 0 0
24 3 2 0.06 7.951302273728994 19.808214037264765 22.588134795915995 0 0 0
358 40 2 0.06 14.635655070909719 22.53368522649413 27.71212492173985 0 0 0
208 24 1 -0.18 11.840705618457731 20.57028106421521 21.45769871388701 0 0 0
211 24 2 0.06 11.880107190261011 21.564482458126218 21.901726166623785 0 0 0
212 24 2 0.06 12.594650689943403 19.947087249313945 21.93766779822597 0 0 0
213 24 2 0.06 10.868455160088901 20.143182466378462 21.704752036581166 0 0 0
1970 219 2 0.06 13.948302418339152 22.663964901347562 21.613037577303633 0 0 0
354 40 3 -0.6830000000000001 12.812043249689903 21.826990473955274 27.126723825352908 0 0 0
360 40 4 0.418 13.198814118196715 21.338358189421662 26.38423656417312 0 0 0
2169 241 4 0.418 10.251955197870068 29.67141362857176 23.085964645694055 0 0 0
2167 241 2 0.06 9.401356001163485 29.80072853882396 25.077364968481444 0 0 0
575 64 2 0.06 9.288268239207289 22.014852177756776 29.03423978561977 0 0 0
2171 242 5 0.145 14.52400304268488 29.784308128111263 23.79761151529925 0 0 0
1699 189 2 0.06 7.2567474771971385 15.132730828668715 27.411403397662465 0 0 0
905 101 2 0.06 11.667506232983621 15.553189191841186 28.892210417691565 0 0 0
2175 242 2 0.06 13.289316961110762 28.49382180709292 25.033096406926383 0 0 0
26 3 2 0.06 8.670993409766648 21.74845755524945 21.167436112834327 0 0 0
1701 189 4 0.418 5.473295504610472 16.48621621833894 27.256801068705897 0 0 0
1253 140 5 0.145 9.47876307859292 15.974271698078992 24.996745958737908 0 0 0
1254 140 3 -0.6830000000000001 8.897472836860466 16.591200355482037 23.864936283021454 0 0 0
903 101 3 -0.6830000000000001 9.04420829431386 15.387498677728441 29.551418098967332 0 0 0
2174 242 2 0.06 14.423533860835777 27.618774371013252 24.014850294033767 0 0 0
1258 140 2 0.06 10.440504261746426 16.44216548383864 25.20299054636326 0 0 0
1259 140 2 0.06 8.839623313946959 16.149904093662318 25.86179927284171 0 0 0
1260 140 4 0.418 8.266582350547342 17.249944042739113 24.17409080302538 0 0 0
1280 143 5 0.145 10.731278413553293 24.49774039759806 23.841669509516024 0 0 0
1281 143 3 -0.6830000000000001 10.205059482364868 23.69612771364606 22.80513981562285 0 0 0
1285 143 2 0.06 10.84231987207791 23.88997468348301 24.739459551159317 0 0 0
1286 143 2 0.06 11.724533484891198 24.834557947455718 23.54912706511352 0 0 0
1287 143 4 0.418 10.353922577037395 24.151817058170902 21.970868439466468 0 0 0
1351 151 1 -0.18 12.963974198267117 18.48871945546267 26.095718326536808 0 0 0
1352 151 5 0.145 13.05210958904254 19.370066669385178 24.84748944629912 0 0 0
1353 151 3 -0.6830000000000001 13.944313380395283 20.4419157610347 25.083117358476553 0 0 0
1354 151 2 0.06 12.559207989332073 19.030545783177715 26.9492375664107 0 0 0
1355 151 2 0.06 13.94647220226208 18.104950827453013 26.370933168346543 0 0 0
1356 151 2 0.06 12.322071760954394 17.627494953028048 25.912686563511578 0 0 0
1357 151 2 0.06 12.072641334019671 19.759952178578057 24.568800880587194 0 0 0
1358 151 2 0.06 13.41026069017793 18.782979493186588 24.00333432265617 0 0 0
1359 151 4 0.418 14.266855026204714 20.740643728081928 24.22052244464748 0 0 0
1423 159 1 -0.18 8.149025538606251 16.712691681369254 20.487999789590152 0 0 0
1426 159 2 0.06 8.590401355114706 15.908444299338958 21.07660887457806 0 0 0
1428 159 2 0.06 8.024359541908494 17.562371709848353 21.158370151872948 0 0 0
1653 184 2 0.06 10.297637804006923 19.942290650929966 27.069964172209293 0 0 0
1655 184 2 0.06 10.444821906140634 18.226148113191485 28.920604863049935 0 0 0
1774 198 1 -0.18 12.893970211798232 15.991055427662317 22.69054111881988 0 0 0
1775 198 5 0.145 11.662428229497312 16.241775628659205 21.817300950134086 0 0 0
1776 198 3 -0.6830000000000001 10.99545690998672 17.419828051289315 22.218333281805542 0 0 0
1777 198 2 0.06 12.631494024974778 15.90427032724351 23.745534303759325 0 0 0
1778 198 2 0.06 13.631942686307132 16.78647354986558 22.586038972067634 0 0 0
1779 198 2 0.06 13.375696150073946 15.061934343556132 22.391563998997377 0 0 0
1780 198 2 0.06 10.96844045338032 15.404139559502099 21.881198532717832 0 0 0
1781 198 2 0.06 11.959128618388183 16.330048526615737 20.773487444657658 0 0 0
1782 198 4 0.418 10.266290735058035 17.15430424921116 22.786613268898694 0 0 0
1963 219 1 -0.18 14.275799623850526 23.32453823922237 23.637408093120758 0 0 0
962 107 2 0.06 0.04958186108608082 15.804627381265032 21.539045876675434 1 0 0
1967 219 2 0.06 13.348719161745562 22.901619331615223 24.026179799306767 0 0 0
1982 221 5 0.145 14.627393643799476 15.26312945276284 27.863822382166674 0 0 0
1158 129 2 0.06 12.996518940853747 26.52660052081787 20.285033735120315 0 0 0
1987 221 2 0.06 14.239686699176895 16.04591358705563 28.51566295663536 0 0 0
1427 159 2 0.06 7.159252431671597 16.393223558884152 20.162113437192446 0 0 0
2208 246 3 -0.6830000000000001 10.605807169490634 25.194500500890456 20.539251743554516 0 0 0
163 19 1 -0.18 7.147619537183139 24.924499559062756 21.101600400223845 0 0 0
164 19 5 0.145 5.891379897259038 24.27485825200628 21.676517662716268 0 0 0
165 19 3 -0.6830000000000001 5.464960930861378 24.972726502251266 22.82958228333671 0 0 0
166 19 2 0.06 7.951944988552813 24.953826559524142 21.83548063532841 0 0 0
167 19 2 0.06 6.951309481371154 25.940559610862074 20.762384077574033 0 0 0
170 19 2 0.06 5.088433536769177 24.271952530889493 20.939355025092812 0 0 0
171 19 4 0.418 4.692712785185981 24.49024926562251 23.150485599557562 0 0 0
282 32 3 -0.6830000000000001 3.921830118966707 23.082774480450194 24.09765784993862 0 0 0
288 32 4 0.418 4.479480667209612 23.15728129967936 24.8726521474136 0 0 0
1135 127 1 -0.18 8.41259352413115 22.622542663484776 26.05118658063858 0 0 0
1136 127 5 0.145 7.428751325466312 22.813585227085824 24.893491498510123 0 0 0
1137 127 3 -0.6830000000000001 6.4518410861526885 23.78146108757053 25.219768342098096 0 0 0
1138 127 2 0.06 7.909504389838819 22.25802968808026 26.946078058191038 0 0 0
1139 127 2 0.06 8.916496575738249 23.555960551311262 26.301773173628945 0 0 0
1141 127 2 0.06 6.9420781969414875 21.871443565221412 24.648346087287585 0 0 0
1142 127 2 0.06 7.954101111131002 23.140738035293687 23.998160485518817 0 0 0
1143 127 4 0.418 6.260203664213937 24.26492959141916 24.414459980514653 0 0 0
2143 239 1 -0.18 6.264222682281617 29.497025207479158 24.35996172854664 0 0 0
2144 239 5 0.145 5.830134556951768 28.0952601462141 23.91627155589762 0 0 0
2145 239 3 -0.6830000000000001 6.865868197427409 27.431980461201682 23.22165679404064 0 0 0
1965 219 3 -0.6830000000000001 14.972667829438057 21.231803003728796 22.670338491839267 0 0 0
2147 239 2 0.06 7.105891323854105 29.45532067901878 25.050115671642818 0 0 0
50 6 2 0.06 13.57846753487404 18.125208535604937 20.45129688008969 0 0 0
2149 239 2 0.06 4.959870961640014 28.15374745806347 23.263115418278897 0 0 0
2150 239 2 0.06 5.544116536758155 27.49570992063008 24.780950895828926 0 0 0
2151 239 4 0.418 6.530846743595886 26.5478362778278 23.032212112647873 0 0 0
168 19 2 0.06 7.507805521437281 24.351374206600735 20.24819898151269 0 0 0
352 40 1 -0.18 13.056303332764934 23.777347365282843 28.527176783845842 0 0 0
353 40 5 0.145 13.660739778646793 22.91618265944404 27.413667005729838 0 0 0
355 40 2 0.06 12.94547691415274 23.211485901627228 29.452570705948627 0 0 0
356 40 2 0.06 12.073963786719103 24.15563852608131 28.242619845236987 0 0 0
357 40 2 0.06 13.692728536086454 24.636058208719177 28.74314022476858 0 0 0
2 1 5 0.145 13.138999619814925 19.893599585436064 29.974713220834694 0 0 -1
569 64 5 0.145 9.452236674428402 22.641282645565507 29.91118044961058 0 0 0
2168 241 2 0.06 10.731793004740465 28.66083244281442 25.15002841415173 0 0 0
573 64 2 0.06 7.533146346250275 23.654023665642033 29.795891255177814 0 0 0
574 64 2 0.06 10.029956844748384 23.505728272957754 29.584417097588982 0 0 0
1153 129 1 -0.18 13.820225660499224 26.617203896442202 20.992515853527387 0 0 0
9 1 4 0.418 12.35309042463647 21.013553381987716 28.594228582321993 0 0 -1
1156 129 2 0.06 13.393244500026135 26.80479644624883 21.977630802084548 0 0 0
1964 219 5 0.145 14.724197569067378 22.59114607985249 22.372766738710595 0 0 0
1159 129 2 0.06 14.25803840733457 28.701550735457232 20.600148272313728 0 0 0
1157 129 2 0.06 14.330381654854557 25.654419829762748 21.02591254481665 0 0 0
1279 143 1 -0.18 9.830953034965232 25.70604547829131 24.126550599788757 0 0 0
1282 143 2 0.06 8.830815363021001 25.40150000148383 24.435195407082002 0 0 0
1283 143 2 0.06 9.729986803056507 26.345314930727973 23.249972158595533 0 0 0
1284 143 2 0.06 10.248043882001191 26.31176405412691 24.93058986299855 0 0 0
1387 155 1 -0.18 10.570577186110395 28.68643463543596 20.478522148167947 0 0 0
1388 155 5 0.145 9.13581839594196 28.360916901599296 20.9072516977116 0 0 0
1389 155 3 -0.6830000000000001 8.846091152565013 28.984639004718012 22.141519176498274 0 0 0
1390 155 2 0.06 11.29377466758179 28.29952898183003 21.19677509524834 0 0 0
1391 155 2 0.06 10.72823703383561 29.76248278239548 20.394278849600084 0 0 0
1700 189 2 0.06 6.289411954771822 15.11963137318535 28.874472090713127 0 0 0
1393 155 2 0.06 9.008259377150283 27.286024086033056 21.02491422030839 0 0 0
1983 221 3 -0.6830000000000001 13.938089189835498 15.308017339772132 26.634797620358068 0 0 0
1395 155 4 0.418 8.130834500826138 28.47330687917462 22.553197570118773 0 0 0
1968 219 2 0.06 14.093275012846886 24.37870196344899 23.42811770606651 0 0 0
2170 242 1 -0.18 14.299408228188367 28.513837705072245 24.62385928865243 0 0 0
2162 241 5 0.145 10.483446295741924 29.710335104280357 24.998263348249125 0 0 0
2177 242 2 0.06 13.796874573560643 29.845459121859673 22.9876199843988 0 0 0
961 107 2 0.06 0.25077085406356026 16.780119653087205 22.982727609663115 1 0 0
7 1 2 0.06 13.515966850628422 19.18328714375628 29.240095968470797 0 0 -1
351 39 4 0.418 1.5464923559573271 18.508503962718382 20.013853161884754 0 0 0
361 41 1 -0.18 20.956980236214324 4.513270062681366 8.427024090341613 0 0 0
362 41 5 0.145 21.75035897923775 5.288737579990645 9.480485072939105 0 0 0
2186 243 2 0.06 22.9752630131308 1.773376970509957 8.766731905932124 0 0 0
364 41 2 0.06 20.0402615090567 5.036075970719533 8.155474600045526 0 0 0
365 41 2 0.06 20.691346689554052 3.5172814882196395 8.780399190775537 0 0 0
366 41 2 0.06 21.541022093273735 4.391044952233047 7.51466995438768 0 0 0
367 41 2 0.06 21.929585936512574 6.312700035672254 9.15372690399413 0 0 0
368 41 2 0.06 22.725878402194233 4.827288766745626 9.632197671520897 0 0 0
388 44 1 -0.18 16.3072324144959 3.615986453328292 6.131043495538141 0 0 0
389 44 5 0.145 16.572282495455188 4.4159271348869655 7.411310464806364 0 0 0
390 44 3 -0.6830000000000001 17.602944748643445 3.8166809132995207 8.168928289276163 0 0 0
391 44 2 0.06 16.072657986147817 2.575366607197649 6.3515926393361415 0 0 0
392 44 2 0.06 17.172449057255825 3.625979983276619 5.469856137585843 0 0 0
393 44 2 0.06 15.464669244660426 4.037793655059934 5.580889282674395 0 0 0
394 44 2 0.06 15.672714798214647 4.478500324651629 8.023287084694575 0 0 0
395 44 2 0.06 16.86156236766702 5.436007746974859 7.161286208386357 0 0 0
396 44 4 0.418 17.808512281561352 4.406431952805147 8.896784218189651 0 0 0
506 57 5 0.145 16.549945408439175 4.306247709783123 2.1248935929311994 0 0 0
507 57 3 -0.6830000000000001 16.48922347128173 5.5742473512906745 1.4973916977654242 0 0 0
1712 191 5 0.145 22.56763559839431 14.679616212216947 3.199198595517345 0 0 0
511 57 2 0.06 17.11484251311141 3.6261270140829645 1.4875964316149088 0 0 0
512 57 2 0.06 17.094181646429124 4.391970657024985 3.064108683891666 0 0 0
550 62 1 -0.18 21.971302746655937 6.936472755589162 2.2104729949069695 0 0 0
551 62 5 0.145 22.230943223487554 5.460599680958819 2.5279833219992858 0 0 0
552 62 3 -0.6830000000000001 23.39813202018505 5.009517939144265 1.8737271982520922 0 0 0
554 62 2 0.06 22.82207325973311 7.551834357628394 2.5026164439042136 0 0 0
556 62 2 0.06 21.38326182465761 4.853504044551417 2.2121346584404815 0 0 0
557 62 2 0.06 22.35406860295484 5.321044979165171 3.6016373586020625 0 0 0
558 62 4 0.418 24.152817254400308 5.44452026396109 2.2840070372724934 0 0 0
1708 190 2 0.06 16.333181142474043 14.881541108450572 8.935642787543138 0 0 0
921 103 3 -0.6830000000000001 16.13890143673167 6.9772148518077115 9.411624174186803 0 0 0
927 103 4 0.418 16.990410302312785 6.602804888267047 9.67181055024717 0 0 0
98 11 2 0.06 22.824139646474645 12.533720212936705 0.3656286717839331 0 0 1
1048 117 2 0.06 21.603131356977727 0.5580270111628306 4.1522996781758845 0 0 0
1051 117 2 0.06 23.19429758200421 1.5435168430328428 5.857307668739179 0 0 0
1897 211 2 0.06 18.50662846935365 8.571460128696994 3.4099223103549714 0 0 0
2044 228 1 -0.18 19.881187877710552 2.3964761779086414 5.758755427107275 0 0 0
2045 228 5 0.145 19.510029903343515 1.2860576760920104 6.748910195348475 0 0 0
2046 228 3 -0.6830000000000001 19.928638033465027 0.022787332964072798 6.273829966883406 0 0 0
2047 228 2 0.06 19.4389652308372 2.2137832494276717 4.779103119364154 0 0 0
2048 228 2 0.06 20.96014206561002 2.4817880488786273 5.636903778761605 0 0 0
2049 228 2 0.06 19.514117810129104 3.3605034717513806 6.111872696052515 0 0 0
2050 228 2 0.06 18.430298137900312 1.267616239662125 6.893736406565892 0 0 0
2051 228 2 0.06 19.963093454201395 1.4683780994832751 7.72252512536571 0 0 0
810 90 4 0.418 23.689871318016763 14.763325902496172 6.779348674235044 0 0 0
116 13 2 0.06 23.584063108746477 5.778237532214456 7.311006908485556 0 0 0
271 31 1 -0.18 29.82331794194237 4.8986961552716854 7.778095224978651 0 0 0
272 31 5 0.145 29.625290651205475 3.9887300039339038 6.5625631643912135 0 0 0
273 31 3 -0.6830000000000001 28.24772740840455 3.742707775276293 6.3470709303402595 0 0 0
274 31 2 0.06 29.366301758946484 4.474986746274278 8.67206675741924 0 0 0
275 31 2 0.06 29.40153326373277 5.889196044742643 7.605926552054363 0 0 0
1713 191 3 -0.6830000000000001 21.58057913130274 13.916275236526293 2.5326982952472235 0 0 0
1716 191 2 0.06 24.636456607938054 14.504180566005507 3.8260482871869885 0 0 0
77 9 2 0.06 21.395644517772823 13.7408410789488 9.71253179293818 0 0 0
279 31 4 0.418 28.18756315603421 3.1168297146826953 5.635261305245803 0 0 0
523 59 1 -0.18 27.589336748716207 5.550332821491211 2.972153250037097 0 0 0
524 59 5 0.145 26.438673058674073 5.822738983612932 3.945483805469503 0 0 0
525 59 3 -0.6830000000000001 25.347854487587004 6.407579096824902 3.26251950923015 0 0 0
526 59 2 0.06 27.931865754264432 6.470617902785875 2.498286145781575 0 0 0
527 59 2 0.06 27.2846844131072 4.857606067684943 2.187056773773566 0 0 0
528 59 2 0.06 28.440245787106935 5.110601162411023 3.4943103267118576 0 0 0
529 59 2 0.06 26.76197333088648 6.489170011530878 4.74425957797663 0 0 0
530 59 2 0.06 26.114787959626838 4.896053793490154 4.417889855621586 0 0 0
531 59 4 0.418 25.23788229347534 7.305702678298719 3.5967238977810685 0 0 0
1045 117 1 -0.18 22.664806206574006 0.31204920482526005 4.15392489368947 0 0 0
1046 117 5 0.145 23.29337528972104 0.5060083664722801 5.539827151717623 0 0 0
31 4 2 0.06 16.020525174541294 12.743777579589157 1.7735081736105125 0 0 0
1050 117 2 0.06 23.149013229205774 0.9555657154917975 3.4183683058381233 0 0 0
1052 117 2 0.06 24.358167531963538 0.27568300923766764 5.50668274672148 0 0 0
1336 149 2 0.06 23.740617999532287 10.804770360691158 9.444497285334755 0 0 0
1684 188 1 -0.18 27.080077993248715 6.486896980280688 9.747148811877468 0 0 0
1685 188 5 0.145 26.452550039491403 5.350759238963954 8.932811135640566 0 0 0
1686 188 3 -0.6830000000000001 26.613913284801495 5.59268131878406 7.547889253245262 0 0 0
1687 188 2 0.06 26.661282766446124 7.4502354400484725 9.463266952168452 0 0 0
1688 188 2 0.06 28.159232375496966 6.536848233516448 9.605830198365686 0 0 0
1691 188 2 0.06 26.908053784745874 4.394305878011929 9.190374460050643 0 0 0
1692 188 4 0.418 27.238356705282087 4.940557708497602 7.201751907137194 0 0 0
2179 243 1 -0.18 25.137510683645395 1.6802337925611535 8.605522826743124 0 0 0
1714 191 2 0.06 24.25998700535224 13.565735975683326 2.386676381053205 0 0 0
2183 243 2 0.06 25.242249464022525 2.649754488575095 8.118880906605762 0 0 0
2184 243 2 0.06 25.158174779992315 0.9164941688136845 7.82908635591437 0 0 0
29 4 5 0.145 18.178934649238272 12.814782145686403 2.098974782641417 0 0 0
30 4 3 -0.6830000000000001 18.242239722682253 11.666423115042226 2.923932005436158 0 0 0
1705 190 2 0.06 16.232147846011706 13.365621950395408 6.897786052480724 0 0 0
35 4 2 0.06 19.08903010514546 12.872951586336526 1.500403253741632 0 0 0
36 4 4 0.418 19.06773849668687 11.740844476111993 3.419708135736784 0 0 0
462 52 3 -0.6830000000000001 15.841104538019097 10.443336387360086 3.3314915196683357 0 0 0
2034 226 4 0.418 26.078639959755648 13.623174381637227 6.283027232389435 0 0 0
468 52 4 0.418 16.704976309783035 10.831673554830381 3.115637469051017 0 0 0
553 62 2 0.06 21.795653965415706 7.091923994957544 1.1461537026316406 0 0 0
555 62 2 0.06 21.096433360484493 7.303831381044916 2.7466323481367625 0 0 0
613 69 1 -0.18 18.278942960530607 10.863413159391753 7.0913816724158805 0 0 0
614 69 5 0.145 19.089730811966202 11.290918582374518 8.317808582928457 0 0 0
615 69 3 -0.6830000000000001 20.44907706223806 11.441134271676953 7.975265874377069 0 0 0
616 69 2 0.06 18.61698108750709 9.89680906267277 6.717475278537978 0 0 0
617 69 2 0.06 18.363770477752535 11.58645103119579 6.280059865075359 0 0 0
618 69 2 0.06 17.224211606244843 10.775947007152126 7.347414088937337 0 0 0
619 69 2 0.06 18.9992524060996 10.538971387416899 9.100687511655876 0 0 0
620 69 2 0.06 18.71709760496956 12.232949544566472 8.721065465552883 0 0 0
621 69 4 0.418 20.55263621748986 12.28807556284334 7.534794949256191 0 0 0
1711 191 1 -0.18 23.871107412078977 13.887647138402716 3.352534783359396 0 0 0
857 96 5 0.145 19.422659865791935 14.634878013078698 6.568157094108215 0 0 0
858 96 3 -0.6830000000000001 20.570288583968217 13.805892978658836 6.5578808581648405 0 0 0
862 96 2 0.06 18.52924536766149 14.01513914919499 6.624578533680927 0 0 0
2029 226 2 0.06 25.529692336149317 14.510331841141335 9.313989042193729 0 0 0
864 96 4 0.418 21.348288899926178 14.374025414108054 6.678928920455 0 0 0
513 57 4 0.418 16.556810612335376 6.257292302402314 2.175058203318287 0 0 0
920 103 5 0.145 16.36430391184554 8.164768473090195 8.686030114065895 0 0 0
2031 226 2 0.06 25.694512463298356 12.841467171457879 9.84824333964568 0 0 0
926 103 2 0.06 16.955814205703877 7.940291246851358 7.7982926007539355 0 0 0
1340 149 2 0.06 23.93342570910868 7.740554012993394 9.221732616093178 0 0 0
461 52 5 0.145 15.4902402690273 10.956920814034106 4.602664063218336 0 0 0
2028 226 3 -0.6830000000000001 25.245190098063723 13.895092268524838 6.685772123548144 0 0 0
1409 157 2 0.06 16.035852189671303 9.298268385850461 0.5566452010520945 0 0 0
2180 243 5 0.145 23.837550655267215 1.5952884347076672 9.40939651054169 0 0 0
2033 226 2 0.06 25.35992306240155 12.029466409125362 7.497319141978939 0 0 0
1586 177 5 0.145 21.421299293585403 11.091472585423555 4.654364177126768 0 0 0
1587 177 3 -0.6830000000000001 20.51380496016228 12.147194295216506 4.407546883547349 0 0 0
1589 177 2 0.06 20.887897356849994 9.970781889710983 2.859408803578286 0 0 0
1591 177 2 0.06 22.320372914467765 11.489691413164968 5.125438967015263 0 0 0
1592 177 2 0.06 20.980055221013426 10.386504172311874 5.359068214049908 0 0 0
1593 177 4 0.418 20.48185492475619 12.684170961572622 5.212183999253215 0 0 0
1702 190 1 -0.18 15.343102111246425 13.677321042159233 7.444137751017725 0 0 0
2030 226 2 0.06 26.91010086373538 13.541851286807812 8.787752308494582 0 0 0
1707 190 2 0.06 15.100625062893398 12.890753957553848 8.158151426470308 0 0 0
925 103 2 0.06 16.947556757694002 8.850897764183287 9.299887718278999 0 0 0
1891 211 1 -0.18 18.61829307243054 6.572132356323961 4.248714531337753 0 0 0
1892 211 5 0.145 17.888447389387693 7.896515662324784 4.003150925196608 0 0 0
1893 211 3 -0.6830000000000001 16.66563521220432 7.682913974868131 3.3292487982986296 0 0 0
1894 211 2 0.06 18.87917543975489 6.080762612580159 3.3106893166578093 0 0 0
1895 211 2 0.06 18.0130377152048 5.884307878102024 4.839093371080275 0 0 0
1896 211 2 0.06 19.544015096697677 6.745997857195208 4.796244139347516 0 0 0
1898 211 2 0.06 17.683494207337926 8.395443266738855 4.950106738995174 0 0 0
1899 211 4 0.418 16.250241113475468 8.543934193268568 3.240034493266501 0 0 0
2032 226 2 0.06 23.980915076832527 12.977916477526485 8.015590023256268 0 0 0
109 13 1 -0.18 22.367527549763654 7.227623351355799 6.247484564210793 0 0 0
110 13 5 0.145 23.678092595979344 6.467588449013605 6.473554654151505 0 0 0
111 13 3 -0.6830000000000001 24.736815668915597 7.35950371890769 6.750945654938005 0 0 0
112 13 2 0.06 22.441159044305525 7.907521703886367 5.398717230491319 0 0 0
113 13 2 0.06 22.08672605715598 7.810562514839248 7.1251563127685 0 0 0
114 13 2 0.06 21.555797816310843 6.530112123304618 6.042251462967393 0 0 0
115 13 2 0.06 23.9315738172644 5.868977837123515 5.599406292533139 0 0 0
117 13 4 0.418 25.481461783163486 6.809647096234561 7.03739722508988 0 0 0
406 46 1 -0.18 27.27712683509774 9.346455307539143 4.774071539145758 0 0 0
407 46 5 0.145 25.860372412831197 9.912510869157481 4.630086242898818 0 0 0
408 46 3 -0.6830000000000001 24.92432714613083 8.861803497594881 4.490592007328729 0 0 0
409 46 2 0.06 27.560187657635677 8.755632258207179 3.9030765685501736 0 0 0
410 46 2 0.06 27.366577160211182 8.717465411896855 5.659817601049436 0 0 0
411 46 2 0.06 28.006146897382887 10.150000462092466 4.872894511836818 0 0 0
412 46 2 0.06 25.803370233197498 10.560410556949522 3.755572500094017 0 0 0
413 46 2 0.06 25.598124353784502 10.51674253151068 5.498603495961299 0 0 0
414 46 4 0.418 24.79529047768 8.455461567560446 5.357799065466621 0 0 0
1333 149 1 -0.18 23.647875276799017 9.867428563431808 8.898592555855691 0 0 0
32 4 2 0.06 16.966575278360402 11.897047264674056 0.5410283668424138 0 0 0
1337 149 2 0.06 22.641196933415056 9.818470192246382 8.483200229865696 0 0 0
1338 149 2 0.06 24.34527911254754 9.896517282067125 8.060932965564513 0 0 0
1585 177 1 -0.18 21.76987611395581 10.400908240870086 3.3346756828117687 0 0 0
1588 177 2 0.06 22.23115246329752 11.094805797625245 2.6316475689029626 0 0 0
1590 177 2 0.06 22.485119953929555 9.598160146474605 3.5080102354863456 0 0 0
1334 149 5 0.145 23.93701067428564 8.663547179365338 9.798059382811028 0 0 0
1690 188 2 0.06 25.389735651299667 5.270704337031097 9.160293287929054 0 0 0
466 52 2 0.06 15.88954236643841 10.298271084117774 5.372395348464449 0 0 0
1715 191 2 0.06 23.737405629622003 13.004611658431529 3.9765474012570596 0 0 0
467 52 2 0.06 15.969577902645884 11.928429001239847 4.726930066855496 0 0 0
1719 191 4 0.418 21.2417580912303 13.261833511941312 3.1475024728360457 0 0 0
1747 195 1 -0.18 28.03222922044578 10.334080117117685 9.833069478755624 0 0 0
1748 195 5 0.145 27.99787899338801 10.08264030481766 8.322178917158586 0 0 0
1749 195 3 -0.6830000000000001 28.939945865549674 10.903079904957027 7.658411091488304 0 0 0
1571 175 2 0.06 29.883795543763338 8.34138598590271 6.42184742798033 -1 0 0
1403 156 2 0.06 15.200850652910074 1.7867729893789062 9.718532731525707 0 0 0
28 4 1 -0.18 16.943642154488114 12.770946520408268 1.193062444026794 0 0 0
1753 195 2 0.06 27.00243877353696 10.288068979308989 7.930728392150543 0 0 0
1754 195 2 0.06 28.22274418764378 9.038202140519623 8.106082870195866 0 0 0
1755 195 4 0.418 29.816107822508037 10.535249464552187 7.837678543333359 0 0 0
2008 224 1 -0.18 27.78014255634132 13.528616068892262 3.733429555049118 0 0 0
2009 224 5 0.145 28.541767625519064 13.078802624028013 4.984053961349318 0 0 0
2010 224 3 -0.6830000000000001 27.634184904480993 12.637849722823484 5.971075007152089 0 0 0
2011 224 2 0.06 27.1015889649253 14.350926441415758 3.9545876946989966 0 0 0
2012 224 2 0.06 27.192988134386773 12.713633670206617 3.3100691942441722 0 0 0
2013 224 2 0.06 28.4692122508035 13.876777818904406 2.9626813157190157 0 0 0
2014 224 2 0.06 29.14551467790633 13.892109787834753 5.386971331487054 0 0 0
2015 224 2 0.06 29.22129788360969 12.262232380359883 4.73968790384057 0 0 0
2016 224 4 0.418 28.135398834418847 12.104441448155296 6.603539531090671 0 0 0
2026 226 1 -0.18 25.840555819166394 13.51279449068963 9.001829546666027 0 0 0
2027 226 5 0.145 25.043561421885773 13.030801307546865 7.784797350147703 0 0 0
34 4 2 0.06 18.153556055335336 13.704051407486329 2.7286924904182763 0 0 0
2182 243 2 0.06 26.007564777602777 1.5251375158184421 9.243821474459937 0 0 0
924 103 2 0.06 15.148393660289244 9.733222143657992 7.779090564811834 0 0 0
510 57 2 0.06 15.216809780291289 2.735683976076207 2.803853825656404 0 0 0
919 103 1 -0.18 15.01530992548944 8.784111223924846 8.297875441171056 0 0 0
33 4 2 0.06 16.9029976668493 13.65639596843798 0.5567373151600745 0 0 0
505 57 1 -0.18 15.149017919085383 3.732801802756252 2.3670624881869613 0 0 0
859 96 2 0.06 19.364677165028052 14.91054179607069 4.407028111739251 0 0 0
1718 191 2 0.06 22.187779491474046 14.97936861324568 4.175027646952289 0 0 0
2185 243 2 0.06 23.7178698441816 0.6040241011927459 9.845508819151764 0 0 0
154 18 1 -0.18 19.568873343714884 4.507768934293832 15.90829736312243 0 0 0
155 18 5 0.145 20.015981236407494 3.5473030475849865 14.801510461062875 0 0 0
156 18 3 -0.6830000000000001 21.347454172237583 3.806652367316585 14.404477207878296 0 0 0
157 18 2 0.06 19.635210658800712 5.547556538747097 15.584925361804675 0 0 0
158 18 2 0.06 20.17154524231342 4.392512979475277 16.809131434338333 0 0 0
159 18 2 0.06 18.53095409772017 4.317299302611795 16.184681689766233 0 0 0
160 18 2 0.06 19.370864830658128 3.662400130472342 13.933132158104954 0 0 0
161 18 2 0.06 19.930872361690618 2.5123744454203853 15.13356624865575 0 0 0
162 18 4 0.418 21.516237969374714 3.3116312031701423 13.600899781787088 0 0 0
369 41 4 0.418 21.67238234097173 5.72190641390028 11.339579597682294 0 0 0
488 55 5 0.145 17.843698118203402 2.1082574432223895 19.2145789830589 0 0 0
489 55 3 -0.6830000000000001 18.152627553754336 1.0506991732669904 18.33294260170023 0 0 0
106 12 2 0.06 25.17292203301787 14.068816411424882 15.147776388851597 0 0 0
493 55 2 0.06 18.46227892739462 2.9742593336578325 18.97719570551094 0 0 0
853 95 2 0.06 29.42157314636765 12.506655435159196 18.237230639463466 0 0 0
495 55 4 0.418 17.933072297918553 1.354327714861812 17.446571069887746 0 0 0
814 91 2 0.06 21.39171644818886 8.719672109188002 19.142159957722324 0 0 0
2001 223 3 -0.6830000000000001 27.46568342312651 10.156561057815406 16.795912078121543 0 0 0
1767 197 3 -0.6830000000000001 26.337816907069485 5.992113445019351 17.826183498401928 0 0 0
649 73 1 -0.18 16.731095206633174 1.7708906414617642 13.502101106741609 0 0 0
650 73 5 0.145 17.161369097808606 1.0061232387332684 14.756576607994564 0 0 0
651 73 3 -0.6830000000000001 17.106290892644285 1.8337993904073373 15.90369680759449 0 0 0
652 73 2 0.06 17.386436333976974 2.6173194164083036 13.31066432469975 0 0 0
653 73 2 0.06 15.713194829925632 2.1472765665536087 13.591288657723835 0 0 0
654 73 2 0.06 16.764594157015296 1.1164327538533543 12.629631387418257 0 0 0
655 73 2 0.06 18.180898379671937 0.6419305897710794 14.630096905027909 0 0 0
656 73 2 0.06 16.52367846252471 0.13642493120848756 14.907977855076403 0 0 0
657 73 4 0.418 16.190468980668133 1.9238733824980425 16.179929248944962 0 0 0
838 94 1 -0.18 21.242586481659025 0.5006296268490991 12.429973071372215 0 0 0
839 94 5 0.145 20.633232304336715 1.6829990267060513 11.672778289687779 0 0 0
840 94 3 -0.6830000000000001 21.498903558691847 2.793640786158685 11.788153075463132 0 0 0
841 94 2 0.06 21.372973500538915 0.7257648061001857 13.488860342092725 0 0 0
842 94 2 0.06 22.213715971854278 0.2146420756023713 12.025753991502127 0 0 0
1830 204 3 -0.6830000000000001 15.332223862798328 10.057184617902331 19.312181284433883 0 0 0
844 94 2 0.06 19.656114244910786 1.933811437713348 12.084450296291074 0 0 0
845 94 2 0.06 20.49033615506157 1.4365868992314557 10.620366369929233 0 0 0
846 94 4 0.418 21.107727578075757 3.5568320915641736 11.348231951700784 0 0 0
865 97 1 -0.18 17.803201357741436 5.88482424687261 12.617622402371422 0 0 0
866 97 5 0.145 17.73881145128711 4.962680371968594 11.396031186783476 0 0 0
870 97 2 0.06 17.33389129189741 5.412534746600764 13.481976875409217 0 0 0
871 97 2 0.06 16.69936129500078 4.719056075442573 11.173323618273075 0 0 0
872 97 2 0.06 18.255865191173285 4.02643762784975 11.602483435643034 0 0 0
1665 185 4 0.418 29.882119507343933 9.40403093870131 14.661473775564415 0 0 0
2003 223 2 0.06 25.472671107197222 9.864225142111826 18.650498334785865 0 0 0
1507 168 2 0.06 23.78261852136228 8.540102762205297 13.399776885102945 0 0 0
1509 168 2 0.06 24.031638229119615 7.7911136778015 14.962611114184842 0 0 0
1534 171 2 0.06 15.806001540658478 5.041181414081841 19.54685049202071 0 0 0
978 109 2 0.06 20.41669515234967 0.22172395237862463 17.086799892026 0 1 0
849 95 3 -0.6830000000000001 27.53440876075102 12.02734515589315 18.86725586271876 0 0 0
2132 237 2 0.06 17.342377260094658 11.290338994963399 16.399851913796038 0 0 0
1628 181 2 0.06 25.149512613343305 13.947499914520467 19.634863374429177 0 0 0
2004 223 2 0.06 24.174777062231247 9.87606049208565 17.4586763447803 0 0 0
1761 196 2 0.06 18.54780547378312 9.011635265475789 11.988154121978848 0 0 0
2125 237 1 -0.18 15.236661009665855 11.261420609116477 15.869271319352201 0 0 0
2187 243 4 0.418 23.035744243889948 2.497031139729339 10.933503698696596 0 0 0
820 92 1 -0.18 22.833623334754687 5.71473639274877 16.983139490902158 0 0 0
821 92 5 0.145 23.434618900149047 4.312920288281268 16.88191071094444 0 0 0
822 92 3 -0.6830000000000001 24.31107419031136 4.082712516374527 17.96709014344561 0 0 0
824 92 2 0.06 22.239995826840218 5.824805428759041 17.89026454939091 0 0 0
826 92 2 0.06 23.980497642534548 4.204806722822197 15.945822719326033 0 0 0
827 92 2 0.06 22.644168454978313 3.5633631652231768 16.881990283377018 0 0 0
828 92 4 0.418 23.777566090369735 3.9823287734264894 18.760425126008325 0 0 0
928 104 1 -0.18 26.606898245559428 4.530614360819446 13.935099614496394 0 0 0
929 104 5 0.145 25.815998824310217 3.595068997106092 13.013760076793318 0 0 0
930 104 3 -0.6830000000000001 25.350953412199335 4.292446487522209 11.876312779069144 0 0 0
931 104 2 0.06 25.98194537455614 5.333866497064334 14.323240740103733 0 0 0
932 104 2 0.06 27.453840265143306 4.977366538778997 13.413644494634738 0 0 0
933 104 2 0.06 26.99688935112983 3.9849985626120192 14.79587342710064 0 0 0
934 104 2 0.06 24.963107547845166 3.166983149826304 13.541677618006835 0 0 0
935 104 2 0.06 26.442758339811753 2.7650088878225034 12.686715467938738 0 0 0
936 104 4 0.418 24.92105856643573 3.638025432872961 11.306481110353138 0 0 0
1504 168 1 -0.18 24.0972503716273 7.6204716947203535 13.88807775799086 0 0 0
1505 168 5 0.145 23.21027421384721 6.444483845063407 13.464382581681571 0 0 0
1506 168 3 -0.6830000000000001 23.37731688409122 6.175540688053735 12.086030598719232 0 0 0
1510 168 2 0.06 22.162731243856825 6.6616661873357055 13.674454934075174 0 0 0
1511 168 2 0.06 23.471410430718386 5.5478473547758975 14.02441841209653 0 0 0
1512 168 4 0.418 24.11833842201126 5.5562391007076375 12.019482210949416 0 0 0
1657 185 1 -0.18 29.197336681778424 7.099703747080534 15.92966634896787 0 0 0
1660 185 2 0.06 28.546355164544295 7.425449520501472 16.741217912139472 0 0 0
1766 197 5 0.145 26.023676739546985 6.573024394097002 19.071113781583026 0 0 0
1662 185 2 0.06 29.092843822892796 6.01664313744247 15.85271581312368 0 0 0
1028 115 5 0.145 16.541927771723888 14.246635859157179 18.65118403368932 0 0 0
549 61 4 0.418 29.274216521918902 9.702157100157113 17.74103398008193 -1 0 0
2005 223 2 0.06 25.8100643545101 10.03586869822529 15.594204302926464 0 0 0
848 95 5 0.145 28.45821453082527 12.988692632015619 18.39884349237924 0 0 0
1771 197 2 0.06 25.11344253534439 7.159509670790052 18.967956639674576 0 0 0
1867 208 2 0.06 22.506461326541384 1.9297682283044337 18.593367838178043 0 0 0
952 106 2 0.06 15.00968379248644 13.44233386088626 12.700338889404255 0 0 0
2181 243 3 -0.6830000000000001 23.864816264568564 2.557134699696369 10.442050689529804 0 0 0
1772 197 2 0.06 25.811491678720653 5.7764378793790865 19.78277841092318 0 0 0
80 9 2 0.06 20.891965808192296 13.47067141281853 12.17529217260794 0 0 0
1769 197 2 0.06 28.06529563347198 6.842312746721386 19.7552140215733 0 0 0
675 75 4 0.418 15.046028937768128 6.934572664642653 10.796261366395747 0 0 0
1868 208 2 0.06 20.97975114572796 2.793587928314012 18.807533115381904 0 0 0
107 12 2 0.06 23.523068940758943 14.337667335210648 14.594951863610293 0 0 0
200 23 5 0.145 15.754087359817698 10.246179960734619 11.742699240926413 0 0 0
201 23 3 -0.6830000000000001 16.559616818025525 11.161567816793648 12.456104355503015 0 0 0
205 23 2 0.06 15.806672536913265 10.484141182164239 10.681743606563343 0 0 0
206 23 2 0.06 16.15086132891896 9.239927235322005 11.878328530304284 0 0 0
207 23 4 0.418 16.725569294312265 10.780656858339078 13.327712748633042 0 0 0
2007 223 4 0.418 27.97164685830257 9.845953968477325 16.03199222650651 0 0 0
1035 115 4 0.418 18.181830749149015 14.684296413212827 17.725661500424536 0 0 0
1869 208 2 0.06 21.192843534275852 1.1893957581256933 19.487344063516208 0 0 0
2006 223 2 0.06 26.14325344994316 8.609975666760944 16.558995556221607 0 0 0
2131 237 2 0.06 16.51275048936858 9.8233354005766 16.86124124503954 0 0 0
2002 223 2 0.06 25.161463449492167 11.307391303356198 17.681417350351335 0 0 0
868 97 2 0.06 17.277789003021315 6.82370635894221 12.439071741059164 0 0 0
869 97 2 0.06 18.832662250928255 6.116372408064865 12.893676449480033 0 0 0
910 102 1 -0.18 17.765578699020914 14.148623413857486 14.58793922254988 0 0 0
911 102 5 0.145 19.027838333718865 13.506763283260183 15.169390581980315 0 0 0
912 102 3 -0.6830000000000001 19.11802089680506 13.750711603573746 16.55810052680288 0 0 0
1765 197 1 -0.18 27.17402104523967 7.444151467166243 19.584579463322424 0 0 0
914 102 2 0.06 16.869508591481313 13.766575388411573 15.074507639723342 0 0 0
915 102 2 0.06 17.68201247139874 13.929192109278171 13.522593689440173 0 0 0
916 102 2 0.06 19.921212255358885 13.898300449272082 14.683306881111463 0 0 0
917 102 2 0.06 19.01703528700152 12.432499544168627 14.994206760498491 0 0 0
918 102 4 0.418 19.951790505301446 13.35060470626416 16.85132466035108 0 0 0
816 91 2 0.06 22.958980541107383 8.177587230202496 18.56650866527471 0 0 0
947 106 5 0.145 15.112167417500245 14.01876114557008 11.780365004678949 0 0 0
855 95 4 0.418 27.416506397819894 11.384067107558664 18.156534563179974 0 0 0
1335 149 3 -0.6830000000000001 22.96374544554231 8.562611545997619 10.812220468898579 0 0 0
1773 197 4 0.418 25.691162861192737 5.292114773653435 17.691743052626798 0 0 0
1027 115 1 -0.18 16.930313640831503 13.443943724216963 19.895545330126353 0 0 0
1031 115 2 0.06 17.86258745335996 12.904483766237897 19.742699250080594 0 0 0
1763 196 2 0.06 20.10964239894845 10.779446108398417 11.18049835815496 0 0 0
1034 115 2 0.06 16.367106821892218 13.577588737751785 17.80832799071069 0 0 0
1729 193 1 -0.18 20.59603060959244 12.119017984870684 19.339578338942236 0 0 0
1730 193 5 0.145 21.778344645352913 11.97244666248934 18.38429952520606 0 0 0
1731 193 3 -0.6830000000000001 21.4925400575286 12.639087194154499 17.177447108622747 0 0 0
1732 193 2 0.06 19.676662483080026 11.759769612796022 18.87920000395035 0 0 0
1733 193 2 0.06 20.44835679218467 13.161345386438015 19.621119452201377 0 0 0
1999 223 1 -0.18 25.18951498930461 10.21745692059989 17.658796593199877 0 0 0
1735 193 2 0.06 21.97526554296895 10.924166300391061 18.169775742848923 0 0 0
1736 193 2 0.06 22.687046786129496 12.389158715357356 18.81771920534734 0 0 0
1756 196 1 -0.18 19.61032632340197 8.94939887666483 12.220857141015474 0 0 0
1757 196 5 0.145 20.25254087441366 10.339235927193705 12.16588935983999 0 0 0
1758 196 3 -0.6830000000000001 21.639336712374934 10.2690352249522 12.432781402501675 0 0 0
1759 196 2 0.06 19.69848761537876 8.5079077399258 13.213741287046009 0 0 0
1760 196 2 0.06 20.064461432658163 8.265389375275204 11.503323954130217 0 0 0
1762 196 2 0.06 19.776205551160015 10.999362703150869 12.890221420250779 0 0 0
2126 237 5 0.145 16.588711727919048 10.572760828107036 16.07558448344295 0 0 0
1764 196 4 0.418 22.039055247561205 9.70968610685822 11.75301951666499 0 0 0
2071 231 1 -0.18 21.441854980986275 9.046249830761502 15.830755396604495 0 0 0
2072 231 5 0.145 20.022300424683664 9.523246705555229 16.13373878336814 0 0 0
2073 231 3 -0.6830000000000001 19.09016988132522 8.465818497199905 16.00699559419751 0 0 0
2074 231 2 0.06 21.512874709012 8.660200711517898 14.815274412018756 0 0 0
2075 231 2 0.06 21.74839988637627 8.261505420579924 16.518998158791785 0 0 0
2076 231 2 0.06 22.15382775187692 9.868278553638937 15.916924530382431 0 0 0
2077 231 2 0.06 19.760206970586754 10.31847137331751 15.439515553028665 0 0 0
2078 231 2 0.06 19.95916254860042 9.93424068003467 17.139731050944174 0 0 0
2079 231 4 0.418 19.164360291978642 7.90760513376724 16.791155834612915 0 0 0
2116 236 1 -0.18 18.623131256527266 8.853793186892643 19.95777576593417 0 0 0
2117 236 5 0.145 18.08981979326062 7.746760013487254 19.043094676479004 0 0 0
2118 236 3 -0.6830000000000001 19.150191045405816 7.043012471970471 18.424743723864704 0 0 0
2119 236 2 0.06 19.215248335370894 9.57194647789179 19.396397417942985 0 0 0
1752 195 2 0.06 27.288673000747757 9.723766560981481 10.346812241878856 0 0 0
2113 235 2 0.06 15.355251833742088 0.014905796959866503 17.286906206062696 0 0 0
2122 236 2 0.06 17.449855788364275 8.181699127096994 18.277230224305693 0 0 0
2123 236 2 0.06 17.480858837673996 7.040363011693453 19.60442796425495 0 0 0
2124 236 4 0.418 19.49146155199617 6.413740173243699 19.068390741899737 0 0 0
2127 237 3 -0.6830000000000001 17.019675221905647 9.937753398233685 14.887988260395852 0 0 0
2133 237 4 0.418 17.749625598119128 9.3591492021641 15.146054318972757 0 0 0
73 9 1 -0.18 22.11481968024261 13.287728216905093 10.396670086899356 0 0 0
74 9 5 0.145 21.889784212595348 13.750049234020262 11.837131507171879 0 0 0
2129 237 2 0.06 15.280733418374064 12.00908905921456 15.077677765344358 0 0 0
76 9 2 0.06 23.11556675337163 13.55177524265225 10.060956321493705 0 0 0
1751 195 2 0.06 29.00809175217953 10.086851891492556 10.253615505478246 0 0 0
78 9 2 0.06 22.007014329879823 12.206040300432894 10.314832094910278 0 0 0
79 9 2 0.06 22.606666610143243 13.27454880945543 12.502756185047357 0 0 0
101 12 5 0.145 24.128074103594543 14.04984454645554 15.455386387443381 0 0 0
102 12 3 -0.6830000000000001 23.796332863118682 12.730859719418826 15.824559599382495 0 0 0
103 12 2 0.06 24.516006764153563 14.74518097702112 17.480456356010517 0 0 0
108 12 4 0.418 23.92510596875951 12.172217707154187 15.043452860162073 0 0 0
685 77 1 -0.18 26.080883741579438 12.040625462972322 12.930897419884444 0 0 0
686 77 5 0.145 24.862957382206876 11.190705340602385 12.559351814216896 0 0 0
687 77 3 -0.6830000000000001 23.90866636419528 11.233566569045985 13.598648562110796 0 0 0
688 77 2 0.06 26.523734126570083 11.71329812916425 13.872360683912408 0 0 0
689 77 2 0.06 25.81224698844307 13.09272045282081 13.02599816424322 0 0 0
690 77 2 0.06 26.851310165115358 11.969327673225516 12.163384217036471 0 0 0
691 77 2 0.06 25.156646937938575 10.15715650012287 12.379079114069766 0 0 0
692 77 2 0.06 24.40387927956536 11.56193398482858 11.643587115641225 0 0 0
693 77 4 0.418 23.08870618794779 10.84876978415419 13.259137098085947 0 0 0
363 41 3 -0.6830000000000001 21.060082362876546 5.315484937579029 10.714338457935296 0 0 0
823 92 2 0.06 23.607997034267417 6.480622020119696 16.978762438569827 0 0 0
825 92 2 0.06 22.169767940029267 5.907073977165043 16.1410776862142 0 0 0
854 95 2 0.06 28.122419329351274 13.367090583811796 17.432671824411294 0 0 0
1864 208 1 -0.18 21.69907397691631 2.1353040851911147 19.295985891746106 0 0 0
811 91 1 -0.18 22.341660810249024 8.290402474824724 19.455088117192464 0 0 0
851 95 2 0.06 27.671280686509643 14.703240620611329 19.487827040502108 0 0 0
1689 188 2 0.06 26.895688880390853 6.342761497203499 10.81280103859356 0 0 0
1339 149 2 0.06 24.91965235727889 8.755715060724082 10.257718060031804 0 0 0
953 106 2 0.06 16.079455145176365 13.76436865995491 11.346551553447618 0 0 0
1341 149 4 0.418 23.134549348015117 7.743629113748859 11.29428592930549 0 0 0
1508 168 2 0.06 25.145664755425045 7.448380683814973 13.644499651430738 0 0 0
1658 185 5 0.145 28.825219998913035 7.777074092733887 14.606514011719062 0 0 0
1659 185 3 -0.6830000000000001 28.95266327037462 9.183607278055153 14.70344250416298 0 0 0
1663 185 2 0.06 27.79703546287338 7.52933882878646 14.34396798179707 0 0 0
1664 185 2 0.06 29.463999434055832 7.414257542832474 13.8008111106552 0 0 0
494 55 2 0.06 16.80722673911722 2.4013189030524846 19.053154130997267 0 0 0
1737 193 4 0.418 22.325286736338498 12.674075478373437 16.68168287037172 0 0 0
1768 197 2 0.06 27.425253757949513 8.242578920986224 18.885997835385403 0 0 0
2000 223 5 0.145 26.14284069251182 9.70091674799843 16.577490453269387 0 0 0
873 97 4 0.418 19.294488995193205 5.564552146713666 10.406004106334578 0 0 0
867 97 3 -0.6830000000000001 18.338687106404326 5.568176054993537 10.26260493613053 0 0 0
1033 115 2 0.06 15.616495529202714 14.790930139721299 18.83545368451575 0 0 0
1750 195 2 0.06 27.822703497195086 11.378485725670313 10.06200638566535 0 0 0
852 95 2 0.06 29.376568443939956 14.83314826921467 19.087841150681733 0 0 0
1831 204 2 0.06 15.104364570079404 7.3731727144463965 18.89136938756156 0 0 0
847 95 1 -0.18 28.598069245375992 14.136901317470493 19.40300176856836 0 0 0
815 91 2 0.06 22.14456411064926 7.294715371888675 19.84920950317049 0 0 0
1303 145 2 0.06 29.949571799752775 10.214793959363979 22.427106562392105 0 0 0
1089 121 4 0.418 15.164846721800883 11.127564359806179 22.64692112831229 0 0 0
492 55 2 0.06 17.773925185581042 2.4553603216873885 21.35907465982696 0 0 0
622 70 1 -0.18 20.26086315170699 1.6512873067367226 24.51297602475576 0 0 0
623 70 5 0.145 18.75228643106423 1.4416638580538539 24.354593244071516 0 0 0
1621 181 1 -0.18 23.812109504156975 13.979094668470099 21.336728471940603 0 0 0
625 70 2 0.06 20.77431527017328 1.5925340496650233 23.553793213171634 0 0 0
626 70 2 0.06 20.698929610449426 0.9066611144898418 25.178249207498247 0 0 0
627 70 2 0.06 20.46760426930631 2.6361394374012814 24.93510608428055 0 0 0
628 70 2 0.06 18.329937934881688 2.2095067499443446 23.70725602400082 0 0 0
629 70 2 0.06 18.251181585882723 1.5161949693366958 25.318799148495298 0 0 0
2120 236 2 0.06 19.24787114726819 8.459203686853318 20.759123809294 0 0 0
694 78 1 -0.18 17.84411532429166 3.9149124882269906 27.119617376622354 0 0 0
695 78 5 0.145 17.710810488719098 4.663586615116874 28.451136005515206 0 0 0
696 78 3 -0.6830000000000001 16.352616287249344 4.837646447326364 28.797105649979436 0 0 0
697 78 2 0.06 17.38784685597726 4.468042845689826 26.299895221487645 0 0 0
698 78 2 0.06 17.369629856202543 2.935020077769469 27.171266114882616 0 0 0
699 78 2 0.06 18.893928397442625 3.762452273391233 26.865745688602896 0 0 0
700 78 2 0.06 18.194373628439006 5.639044836324261 28.397545377919943 0 0 0
701 78 2 0.06 18.20301816055959 4.1033053662858725 29.245391969387413 0 0 0
1622 181 5 0.145 25.159658903670504 13.653645709440204 20.683648903279604 0 0 0
892 100 1 -0.18 18.661320621302778 5.717124614577885 22.27505510748456 0 0 0
893 100 5 0.145 20.093481012761835 5.637022107537459 21.735827670980143 0 0 0
895 100 2 0.06 18.145996158699333 4.761348934036816 22.18446718722773 0 0 0
896 100 2 0.06 18.07751198538016 6.470927831278543 21.750968771789747 0 0 0
897 100 2 0.06 18.666765498942553 5.991110770366381 23.330958760261822 0 0 0
898 100 2 0.06 20.66586734915715 4.918159070851811 22.322273135278998 0 0 0
899 100 2 0.06 20.58969746286767 6.601919714334302 21.837119239159286 0 0 0
1149 128 2 0.06 16.04826505741479 2.7632006776643205 24.42546037743063 0 0 0
624 70 3 -0.6830000000000001 18.488290262553914 0.17067972546822166 23.80053793393404 0 0 0
1410 157 2 0.06 15.527876420330944 9.531041708603304 28.8915698489133 0 0 -1
1162 130 1 -0.18 16.18741002189687 7.115265026925804 25.885741073679466 0 0 0
1166 130 2 0.06 16.278245892025865 6.29269036042714 25.177637449012717 0 0 0
1167 130 2 0.06 16.950362393443726 6.9789438949451785 26.65223033152855 0 0 0
630 70 4 0.418 17.532768338798743 0.10562383981602216 23.66604982706262 0 0 0
1302 145 2 0.06 27.867310341566334 10.261278848744775 21.01288675416383 0 0 0
1535 171 2 0.06 16.026555735438805 3.782886961092138 20.76754233037757 0 0 0
1536 171 2 0.06 15.614547896220412 5.411212912789544 21.259770523888072 0 0 0
1666 186 1 -0.18 22.678781374700034 6.05374162851786 27.988056685051905 0 0 0
1667 186 5 0.145 21.97150807957309 4.822786260874596 27.412650725038624 0 0 0
1668 186 3 -0.6830000000000001 21.979992394600334 4.847818430373351 25.999718297376493 0 0 0
1672 186 2 0.06 20.94144024599219 4.790066724809897 27.76481297169273 0 0 0
1673 186 2 0.06 22.4635613776887 3.911764958863642 27.752892206782736 0 0 0
597 67 3 -0.6830000000000001 26.755728364418804 5.873947023941289 26.609166008839573 0 0 0
603 67 4 0.418 27.272191385336093 5.303111852547343 27.16945570006433 0 0 0
850 95 2 0.06 28.862677451320415 13.768893543375352 20.395255788662077 0 0 0
1099 123 1 -0.18 27.5986654446575 5.101987150028036 22.70703284218727 0 0 0
1102 123 2 0.06 27.242504440204854 5.7949249400089915 21.946902581710702 0 0 0
1103 123 2 0.06 26.735882394547883 4.750919938413043 23.272854804261396 0 0 0
1104 123 2 0.06 28.026193427849577 4.244331450348259 22.186507417435543 0 0 0
1234 138 1 -0.18 24.671403863389557 7.175844602565659 23.020594822066535 0 0 0
1235 138 5 0.145 23.433322990114334 6.298077183882191 22.82364796429709 0 0 0
1236 138 3 -0.6830000000000001 23.78730873825143 4.931259805084878 22.72959089389836 0 0 0
1237 138 2 0.06 25.337677624866352 7.113139215265674 22.16260306622626 0 0 0
1238 138 2 0.06 25.23056622658571 6.8896933727866605 23.90959676144633 0 0 0
1239 138 2 0.06 24.38490162888111 8.221395577791156 23.13637136809635 0 0 0
1240 138 2 0.06 22.916157309699283 6.594238707688614 21.914507091384284 0 0 0
1241 138 2 0.06 22.739598496077612 6.429635627378244 23.653408489073286 0 0 0
1242 138 4 0.418 24.090558697450714 4.6643347178419505 23.60270866354506 0 0 0
1639 183 1 -0.18 24.06148227562832 2.2176077868058717 24.795247503754478 0 0 0
1640 183 5 0.145 25.06047793295979 3.137950435952172 25.504403030771243 0 0 0
1641 183 3 -0.6830000000000001 24.684539891439023 4.490772437722163 25.335649551719523 0 0 0
1642 183 2 0.06 24.0535000117436 2.3871137692236575 23.718281996169747 0 0 0
1643 183 2 0.06 23.048444362048663 2.365366393242783 25.169098351416146 0 0 0
1644 183 2 0.06 24.320137089884323 1.1702467592034738 24.95660689728382 0 0 0
1645 183 2 0.06 26.063330514356768 2.9914996484370113 25.10238329651437 0 0 0
1646 183 2 0.06 25.099791307241247 2.9085307285842377 26.569572524211466 0 0 0
1647 183 4 0.418 25.355115039027435 5.0365932256105514 25.762593807900267 0 0 0
1670 186 2 0.06 23.72377089860533 6.086588039140475 27.683251438972903 0 0 0
1674 186 4 0.418 22.881186431184865 4.706954697960303 25.7046544788478 0 0 0
94 11 2 0.06 22.772095242473927 14.877513425418659 28.36467832719523 0 0 0
91 11 1 -0.18 23.1722563013911 14.356961341940996 29.235282233180975 0 0 0
1625 181 2 0.06 22.99312849947947 13.432117591214013 20.87216470803188 0 0 0
745 83 2 0.06 19.28828382056764 13.480590838026293 21.67851417007616 0 0 0
1865 208 5 0.145 22.23330509553662 2.749056102947525 20.594903200097153 0 0 0
1866 208 3 -0.6830000000000001 22.756183407567477 4.041049943160362 20.347093265268924 0 0 0
1300 145 2 0.06 27.625984610071807 11.161037224777155 22.501087341052262 0 0 0
42 5 2 0.06 27.626823641608016 14.551572285140995 26.080111541866 0 0 0
1030 115 2 0.06 17.042762348221697 14.091513417020264 20.765028042645064 0 0 0
1871 208 2 0.06 21.437611267053754 2.8202073658936815 21.336561015735438 0 0 0
1872 208 4 0.418 23.163280717009027 4.3487696147272406 21.17137735998438 0 0 0
63 7 4 0.418 20.133136600205297 14.744517316179133 25.729399623893308 0 0 0
491 55 2 0.06 17.469043558016132 0.7835591328374832 20.90665187977307 0 0 0
92 11 5 0.145 22.42366511167222 13.045573098097204 29.49017279964315 0 0 0
97 11 2 0.06 21.3748380133756 13.258202927271709 29.696791481605477 0 0 0
1304 145 2 0.06 29.304778525753505 8.600154166178221 22.181114434365977 0 0 0
172 20 1 -0.18 18.70407727447207 12.382913438292038 28.09908913658617 0 0 0
173 20 5 0.145 19.509228009372823 12.33791936027923 26.796150378137124 0 0 0
174 20 3 -0.6830000000000001 20.531394476146204 13.315554855596108 26.803936106313923 0 0 0
175 20 2 0.06 18.27063397904875 13.368589704697193 28.263944165483952 0 0 0
176 20 2 0.06 19.327445219307926 12.137229591523123 28.958830937998098 0 0 0
177 20 2 0.06 17.887946183017736 11.660041866624834 28.068606207749006 0 0 0
178 20 2 0.06 18.853645106478115 12.509587228618459 25.94397826077052 0 0 0
179 20 2 0.06 19.962470934589597 11.355035367770688 26.664596138683763 0 0 0
180 20 4 0.418 21.266190365044398 12.94567970134903 27.307929431718673 0 0 0
316 36 1 -0.18 20.23513622263867 8.015913295474823 25.301801002960612 0 0 0
317 36 5 0.145 20.08690678714522 9.087421388218846 24.217584259297116 0 0 0
318 36 3 -0.6830000000000001 19.035192861175936 9.964969371811042 24.553003873310125 0 0 0
319 36 2 0.06 19.31694017612773 7.440295132663176 25.417224495379823 0 0 0
320 36 2 0.06 20.47860460478675 8.463119464985194 26.265541848679014 0 0 0
321 36 2 0.06 21.032834711626624 7.317520461815575 25.050256094288454 0 0 0
322 36 2 0.06 19.877289995134632 8.634336883421938 23.248774807300236 0 0 0
323 36 2 0.06 21.00770482523044 9.660218026537306 24.111536153954408 0 0 0
324 36 4 0.418 18.966504700133953 10.603281489294178 23.832907030933256 0 0 0
420 47 2 0.06 23.478008070651462 14.876747732770019 25.632606998797595 0 0 0
739 83 1 -0.18 20.684852481246946 12.801641430755918 23.182765216293063 0 0 0
740 83 5 0.145 19.262293367637863 12.969801127345058 22.63911346581639 0 0 0
741 83 3 -0.6830000000000001 18.649214226803466 11.706203990312064 22.47787746152254 0 0 0
742 83 2 0.06 21.3001595583141 12.192787205866715 22.520227058757865 0 0 0
743 83 2 0.06 20.684410666251487 12.327888892677162 24.16313548358983 0 0 0
744 83 2 0.06 21.171104846805214 13.770376245705815 23.28923660681279 0 0 0
746 83 2 0.06 18.66743248529449 13.585807563382502 23.313092040172595 0 0 0
747 83 4 0.418 17.79722126298943 11.82353651833655 22.06962491893472 0 0 0
1870 208 2 0.06 23.014968343222204 2.120585118108206 21.022349923552746 0 0 0
2060 229 2 0.06 24.929668284029557 12.29224117733607 24.1565336192488 0 0 0
1063 119 1 -0.18 16.188630560881258 12.844745450806027 24.800221276089367 0 0 0
1064 119 5 0.145 15.096002993022768 13.266384613157113 23.81563406024614 0 0 0
1066 119 2 0.06 16.721284779464487 11.95646536403808 24.46145086471673 0 0 0
1067 119 2 0.06 15.775397052223182 12.63353711501644 25.786518149420235 0 0 0
1068 119 2 0.06 16.920080459356974 13.645168519769978 24.913772543715265 0 0 0
1069 119 2 0.06 15.52188046286589 13.504980889846198 22.84122649247781 0 0 0
1081 121 1 -0.18 15.54962100578332 8.130695936381011 22.312502669523884 0 0 0
1082 121 5 0.145 16.101487717241753 9.465328278014155 22.816652821502533 0 0 0
1083 121 3 -0.6830000000000001 15.629804783149412 10.545352733999744 22.034240524850663 0 0 0
1734 193 2 0.06 20.758880001284453 11.542343770878158 20.25160989530605 0 0 0
1032 115 2 0.06 16.169292113827275 12.701103370969534 20.132606207155042 0 0 0
1086 121 2 0.06 15.912514433354168 7.3092591815775485 22.93068421644028 0 0 0
1087 121 2 0.06 17.18861208974511 9.442786587393297 22.794979256874687 0 0 0
1088 121 2 0.06 15.798704368169103 9.636979573591793 23.849509679462848 0 0 0
95 11 2 0.06 24.236310808173588 14.18649141007616 29.071518313936316 0 0 0
900 100 4 0.418 21.002486678219533 4.917323466674092 20.194557068530493 0 0 0
1165 130 2 0.06 16.42313114459485 8.041892658931866 25.36533545974752 0 0 0
894 100 3 -0.6830000000000001 20.116801833608438 5.241776347525098 20.375886654497883 0 0 0
1836 204 4 0.418 15.475126038766192 10.240967454790619 20.24805792920371 0 0 0
1623 181 3 -0.6830000000000001 25.456637098028494 12.273509011988503 20.757503097880214 0 0 0
1629 181 4 0.418 26.21758337131404 12.130923645266286 20.182434606718925 0 0 0
1669 186 2 0.06 22.199060266030244 6.977693492308543 27.663806113144815 0 0 0
1671 186 2 0.06 22.657929275911272 6.032071691122412 29.078621347859638 0 0 0
1084 121 2 0.06 15.856867683538196 7.9329582820297455 21.28664845060339 0 0 0
1147 128 2 0.06 15.715488159031155 4.329329577341286 23.68886349212079 0 0 0
817 91 2 0.06 23.197204965478793 10.183058132720394 20.090353649981115 0 0 0
37 5 1 -0.18 27.29856778774553 13.531373061886546 26.283788438811012 0 0 0
38 5 5 0.145 28.028373437805996 12.541422865497923 25.36882920275099 0 0 0
39 5 3 -0.6830000000000001 27.618838784992686 11.217936115730035 25.646800306972793 0 0 0
40 5 2 0.06 27.50228908332383 13.322210310131634 27.33394062174048 0 0 0
41 5 2 0.06 26.220003454104287 13.491244358732466 26.133146960911432 0 0 0
43 5 2 0.06 29.10622999627615 12.614944774565195 25.512971567198562 0 0 0
44 5 2 0.06 27.82563078726672 12.771388252429496 24.322567869840167 0 0 0
45 5 4 0.418 28.12975297626284 10.62835307938036 25.085520259797402 0 0 0
93 11 3 -0.6830000000000001 22.517955383309225 12.199210711692823 28.358957012678463 0 0 0
2061 229 4 0.418 24.545334516885 11.51640173316277 22.118440167134022 0 0 0
99 11 4 0.418 23.342556136281765 11.732317947642962 28.400334529872413 0 0 0
595 67 1 -0.18 25.779713886285403 8.112565152827894 26.511779126315492 0 0 0
596 67 5 0.145 26.577639043236854 7.086370850241473 27.324662103424274 0 0 0
598 67 2 0.06 24.7901222913681 7.741727742779753 26.24424084566154 0 0 0
599 67 2 0.06 26.295507190358375 8.398827343630325 25.595060890862424 0 0 0
600 67 2 0.06 25.641066559205242 9.027103301826234 27.090315568582483 0 0 0
601 67 2 0.06 26.06707637995551 6.872672177628277 28.26445722346685 0 0 0
602 67 2 0.06 27.556229079050247 7.495486030141471 27.5781780301578 0 0 0
1627 181 2 0.06 25.95884492708583 14.213227418988591 21.169222737048923 0 0 0
812 91 5 0.145 23.044338672497553 9.178593179540469 20.481891068496306 0 0 0
813 91 3 -0.6830000000000001 22.285214494527658 9.26801569921398 21.665663444858225 0 0 0
421 47 2 0.06 25.38245669955509 14.841147572792078 24.007382717335297 0 0 0
818 91 2 0.06 24.03143220046531 8.785236619956674 20.720018712063343 0 0 0
819 91 4 0.418 22.747732424878198 9.903881142310073 22.22372611159133 0 0 0
1770 197 2 0.06 26.901769214068793 7.906909803238648 20.533673088658666 0 0 0
2121 236 2 0.06 17.803785012366465 9.405280065876063 20.41758597777011 0 0 0
1405 157 1 -0.18 15.168500607259302 9.29948538395939 29.895161479179603 0 0 -1
490 55 2 0.06 19.107958152730745 1.4423602406465386 20.854243956743527 0 0 0
1100 123 5 0.145 28.645288030132257 5.760718015858122 23.610384427714678 0 0 0
1101 123 3 -0.6830000000000001 28.090792279020466 6.844084685055298 24.332832420053865 0 0 0
1105 123 2 0.06 29.47044582394182 6.126314130535702 23.00132058874632 0 0 0
1106 123 2 0.06 29.058186454800712 5.035241566612654 24.31111484268598 0 0 0
1107 123 4 0.418 27.539141051607636 6.4915422954345665 25.035778330044902 0 0 0
2059 229 2 0.06 25.550969421700476 10.653100010661628 24.057385458038976 0 0 0
1298 145 5 0.145 29.10590722578323 9.563218152299031 22.651873046810724 0 0 0
1299 145 3 -0.6830000000000001 29.017165001597785 9.368672449953499 24.050861709427863 0 0 0
1301 145 2 0.06 26.948606873174906 9.541596625416702 22.329145457118134 0 0 0
1624 181 2 0.06 23.813743363975192 13.73709303078121 22.39819880479078 0 0 0
1985 221 2 0.06 16.548172241520344 14.638932212603986 27.04674222422582 0 0 0
1305 145 4 0.418 28.61052192144142 8.49890190297636 24.182374777205105 0 0 0
2053 229 1 -0.18 23.695403177226368 10.823805046515897 25.166390680285133 0 0 0
2054 229 5 0.145 24.639623392934023 11.248615341232286 24.038366582392563 0 0 0
2055 229 3 -0.6830000000000001 24.00434306313271 11.080468715543123 22.7902528356413 0 0 0
2056 229 2 0.06 23.395996188501798 9.780768234473793 25.06222349955481 0 0 0
2057 229 2 0.06 22.79359283065724 11.436912229378986 25.179904680094168 0 0 0
2058 229 2 0.06 24.185207828518582 10.934946380477353 26.133699832358474 0 0 0
487 55 1 -0.18 18.06063195186516 1.667215378643832 20.664795525361058 0 0 0
1297 145 1 -0.18 27.81210471262031 10.1658133735922 22.097905145526834 0 0 0
1531 171 1 -0.18 15.436360911857534 4.654256807448103 20.496566014203335 0 0 0
1144 128 1 -0.18 15.252863556645726 3.4247190470998627 24.08340357535774 0 0 0
702 78 4 0.418 16.327638913114065 5.166560018232296 29.701449217188337 0 0 0
957 107 3 -0.6830000000000001 29.29271063709682 14.98610259845897 23.26114860046761 0 0 0
1556 173 2 0.06 20.93368613455361 0.013622067050079067 21.576618296552528 0 1 0
235 27 1 -0.18 22.010703712953354 20.32019980518141 3.624732132362144 0 0 0
238 27 2 0.06 23.080588821230908 20.419758975834018 3.8091164244852003 0 0 0
239 27 2 0.06 21.576216477337162 19.752688064376596 4.446319695620928 0 0 0
765 85 4 0.418 17.13798044413238 19.989942836754405 1.2341575006557277 0 0 1
802 90 1 -0.18 21.972004198787307 17.401783422828895 7.426766152959194 0 0 0
1727 192 2 0.06 22.485957745351637 24.53908245507513 2.288915040240536 0 0 0
806 90 2 0.06 22.010285875513958 17.718800640253644 6.384665397277878 0 0 0
807 90 2 0.06 22.163632533388874 18.28064038238106 8.042088125298251 0 0 0
809 90 2 0.06 24.0058587777345 16.70299143902495 7.594576028375782 0 0 0
1018 114 1 -0.18 26.07927629090822 24.39188845007525 9.761318754467746 0 0 0
2134 238 1 -0.18 23.396400118033284 22.587726742516963 6.213192356250654 0 0 0
860 96 2 0.06 20.208087428479548 16.199843477155554 5.262329068267489 0 0 0
1728 192 4 0.418 21.816780503476643 25.312542658145695 4.198813947801978 0 0 0
1703 190 5 0.145 15.56848007504614 15.006249874983626 8.172110967086857 0 0 0
1091 122 5 0.145 15.264974308294542 19.48104216889962 8.578605026839236 0 0 0
1092 122 3 -0.6830000000000001 15.742072146838046 20.508764309150326 7.731625746096666 0 0 0
1381 154 2 0.06 15.415397371864369 17.31457194044101 4.5429426370825 0 0 0
265 30 2 0.06 21.095886137669947 27.05166872170686 9.105802993869961 0 0 0
805 90 2 0.06 20.960485622500105 17.06505732320853 7.645161878891552 0 0 0
1097 122 2 0.06 15.751184563784816 18.544262233626597 8.307915712152663 0 0 0
1098 122 4 0.418 16.65264399985153 20.273257503317872 7.522037662018768 0 0 0
2135 238 5 0.145 22.75899015777469 23.56820612195218 7.2030040216390505 0 0 0
1468 164 1 -0.18 18.07995542534505 18.81254253833719 3.7519157594345334 0 0 0
1469 164 5 0.145 18.048865440785388 20.34335957141161 3.693799526476516 0 0 0
1470 164 3 -0.6830000000000001 18.30068999934593 20.78916689864333 2.3768539436875606 0 0 0
1471 164 2 0.06 19.065619968015262 18.4199004679403 3.501914646513602 0 0 0
1472 164 2 0.06 17.356046127298217 18.374247259558324 3.064012416586284 0 0 0
1473 164 2 0.06 17.830704737785908 18.463057278842687 4.753874387822708 0 0 0
1474 164 2 0.06 18.797832965843916 20.764557926826836 4.364710343065292 0 0 0
1475 164 2 0.06 17.076298181726404 20.71615227406659 4.015175689158238 0 0 0
1476 164 4 0.418 18.31422353916306 21.7532691006161 2.389045624830221 0 0 0
1495 167 1 -0.18 16.534278381715755 23.462250315193554 0.9305100043238164 0 0 0
1498 167 2 0.06 15.793025875389054 23.673284080086482 1.7014427745834233 0 0 0
1499 167 2 0.06 16.595286829512844 22.381817043361046 0.8059137174991512 0 0 0
1951 217 2 0.06 15.950896559573076 27.176638792713323 5.266334570582141 0 0 0
1527 170 2 0.06 17.341932904042498 22.9289366449792 8.516615325433339 0 0 0
1528 170 2 0.06 16.258555665937884 23.10116015804581 6.2521940433816505 0 0 0
327 37 3 -0.6830000000000001 15.356354832053897 28.450613315786853 8.427445687479779 0 0 0
1704 190 3 -0.6830000000000001 15.967830035752531 16.01471695681325 7.266573060191636 0 0 0
266 30 2 0.06 22.71192302609944 26.97836745641438 8.40353967570923 0 0 0
1049 117 2 0.06 22.767152022709286 29.282138417173993 3.8118314819054935 0 -1 0
1838 205 5 0.145 26.29980534799589 17.9564623073598 9.12675903187918 0 0 0
1990 222 1 -0.18 20.416267336979637 20.746217385829237 7.372212813960202 0 0 0
1991 222 5 0.145 19.297565785179604 20.07967860041018 8.175306457770079 0 0 0
1992 222 3 -0.6830000000000001 18.302275356634688 19.564761273944573 7.310341465570055 0 0 0
1993 222 2 0.06 20.041730719700354 21.564507588625414 6.757675073184231 0 0 0
1994 222 2 0.06 20.919012568215216 20.036809246115588 6.717299291342867 0 0 0
1995 222 2 0.06 21.16923775361588 21.159934224716377 8.04383445710094 0 0 0
1996 222 2 0.06 18.847182237176877 20.80487931846419 8.85260299695129 0 0 0
1997 222 2 0.06 19.700831769319517 19.27431734536989 8.78870730758444 0 0 0
1998 222 4 0.418 18.605862066515748 18.73484010108 6.963469753341279 0 0 0
236 27 5 0.145 21.73503236200931 19.643004190691276 2.278727452269171 0 0 0
237 27 3 -0.6830000000000001 22.26527999416991 18.33187152434097 2.2773590014876683 0 0 0
241 27 2 0.06 22.177652260489676 20.21688450529294 1.4644174638785301 0 0 0
242 27 2 0.06 20.66361319230625 19.595099976077318 2.090050256946744 0 0 0
243 27 4 0.418 21.95000642977595 17.898405688203475 1.4928109410062844 0 0 0
803 90 5 0.145 23.001608480083544 16.30728220748742 7.720037322556744 0 0 0
804 90 3 -0.6830000000000001 22.84385266239262 15.233140053087455 6.817818115270898 0 0 0
808 90 2 0.06 22.91802750319651 15.951976766435703 8.74821731310533 0 0 0
736 82 2 0.06 18.82005774603974 17.008058155846413 8.926198446693006 0 0 0
1189 133 1 -0.18 26.053361817799153 17.239579631740884 5.321118578544061 0 0 0
1190 133 5 0.145 24.67513737123988 17.58516262799778 4.744259610828616 0 0 0
1191 133 3 -0.6830000000000001 24.781632629892716 17.962539946435417 3.3876337891859705 0 0 0
1192 133 2 0.06 26.732853220792784 18.090963750334943 5.277129711430651 0 0 0
1193 133 2 0.06 26.515382352310727 16.412055637634406 4.785203564221501 0 0 0
1194 133 2 0.06 25.97318791541508 16.932739097047367 6.362609379698672 0 0 0
1195 133 2 0.06 24.220775048254893 18.401789654558836 5.304424366748136 0 0 0
1196 133 2 0.06 24.006810220278215 16.72884923929161 4.819263225032993 0 0 0
1197 133 4 0.418 23.895412628338732 18.15988740758574 3.0651485942395436 0 0 0
1047 117 3 -0.6830000000000001 22.681786594652767 29.663714136377884 6.496392576482999 0 -1 0
1442 161 5 0.145 26.077886911307985 16.05279093967462 0.9598408089113422 0 0 0
1443 161 3 -0.6830000000000001 26.78624646355742 16.596894484436902 2.052210146374953 0 0 0
2052 228 4 0.418 20.881389294651644 29.942273903730925 6.384212837008739 0 -1 0
1445 161 2 0.06 25.156803267740962 17.924652490854903 0.32727008011086806 0 0 0
863 96 2 0.06 19.443183179431163 15.250413745300463 7.464750240148833 0 0 0
1447 161 2 0.06 26.66924406242219 15.25252574301092 0.5164447516084532 0 0 0
1448 161 2 0.06 25.15178609079737 15.614641501378113 1.3285188397168064 0 0 0
1449 161 4 0.418 26.177159936145163 17.133529487607838 2.5680839396053683 0 0 0
1021 114 2 0.06 27.08284712211029 24.80478000251493 9.85236910270985 0 0 0
1841 205 2 0.06 24.298443109583157 18.818973174789424 9.116852449130556 0 0 0
326 37 5 0.145 16.663730305784433 28.93162372744414 8.658079071561513 0 0 0
1717 191 2 0.06 22.755983830904412 15.590435937964827 2.632411976358716 0 0 0
731 82 5 0.145 18.81702452572795 16.505836664185747 9.892482486500507 0 0 0
1837 205 1 -0.18 25.291445136777096 19.036912734565675 8.72020692228686 0 0 0
856 96 1 -0.18 19.363392785921093 15.512746207845078 5.314750032128241 0 0 0
1842 205 2 0.06 25.205748711375293 19.10264665596515 7.636719752404129 0 0 0
1843 205 2 0.06 27.27726959668223 18.177554759243648 8.705140390222413 0 0 0
1844 205 2 0.06 25.99696882467708 16.977798989567535 8.756952168576344 0 0 0
2136 238 3 -0.6830000000000001 23.146587564008218 23.233989150652956 8.515724710537171 0 0 0
2137 238 2 0.06 23.099436381765972 21.560048354875676 6.42190849074039 0 0 0
2142 238 4 0.418 22.86352434629331 23.944459060355268 9.102730012038835 0 0 0
82 10 1 -0.18 20.383042473966338 26.496853854323 6.34980536086417 0 0 0
83 10 5 0.145 19.91639406585127 26.556813624030458 4.894346399423828 0 0 0
84 10 3 -0.6830000000000001 19.996640601541014 25.26605291715952 4.313700725405373 0 0 0
85 10 2 0.06 21.408458472403165 26.142172826277896 6.428309382025346 0 0 0
86 10 2 0.06 19.749536544890404 25.84393253746811 6.950719256970193 0 0 0
87 10 2 0.06 20.35534183399719 27.488194385948443 6.799357242644383 0 0 0
88 10 2 0.06 20.533075333823312 27.259571300412478 4.3337723305816915 0 0 0
89 10 2 0.06 18.887500314883656 26.913473075190616 4.844648314809126 0 0 0
90 10 4 0.418 19.33791731925877 24.72820671978294 4.773137195014643 0 0 0
240 27 2 0.06 21.57737555447268 21.321098940259095 3.6487389287583674 0 0 0
325 37 1 -0.18 17.70392644370797 27.969663908890496 8.082968019376043 0 0 0
1952 217 2 0.06 16.03053690956246 25.763945341815354 6.3036328903456225 0 0 0
328 37 2 0.06 17.617594889160628 27.891470853243995 6.999490324422471 0 0 0
329 37 2 0.06 17.6058591791083 26.97230769585726 8.510523864620046 0 0 0
330 37 2 0.06 18.709443607007806 28.328256001308375 8.303845743373518 0 0 0
2138 238 2 0.06 24.484532272375052 22.638567710147132 6.25751686091558 0 0 0
332 37 2 0.06 16.808491737993943 29.051081551897333 9.731052170418973 0 0 0
1496 167 5 0.145 17.8983092353759 24.06814574097795 1.279500966908394 0 0 0
1497 167 3 -0.6830000000000001 18.36932767613557 23.564685333174275 2.5170303993035175 0 0 0
1501 167 2 0.06 17.817278623926477 25.153108646219625 1.3492627503308448 0 0 0
1502 167 2 0.06 18.624770657311263 23.849475205493178 0.49537626990731026 0 0 0
1503 167 4 0.418 19.103741671029958 24.120033378745106 2.7835138121031746 0 0 0
1522 170 1 -0.18 17.79588887255052 23.527868728945062 7.726099549748428 0 0 0
1523 170 5 0.145 17.341687619780135 23.029569779941422 6.3494618840180195 0 0 0
1524 170 3 -0.6830000000000001 17.953956516763434 23.79050064915449 5.329539414392234 0 0 0
1525 170 2 0.06 17.506487607691906 24.565749426848292 7.890634188746222 0 0 0
1526 170 2 0.06 18.878102798150884 23.457688172569263 7.839121048216107 0 0 0
1529 170 2 0.06 17.606934785713506 21.98159314340193 6.220582140305041 0 0 0
1530 170 4 0.418 17.64726666115421 23.46663510608606 4.482920935670922 0 0 0
1720 192 1 -0.18 22.94796747249474 26.649574524126177 2.0759151432425877 0 0 0
1723 192 2 0.06 23.604576114660787 27.398720970714926 2.5187470107827363 0 0 0
1724 192 2 0.06 21.92132262059745 27.009492182011286 2.1503270085139214 0 0 0
1725 192 2 0.06 23.196227379997794 26.580417347640317 1.0157569329334502 0 0 0
2141 238 2 0.06 23.07634769999815 24.586736544238654 6.990010473194497 0 0 0
759 85 3 -0.6830000000000001 16.515817287349464 19.681436874386133 0.5673224457485381 0 0 1
2140 238 2 0.06 21.67189492035081 23.548311579464023 7.129693113801868 0 0 0
331 37 2 0.06 16.765205015331194 29.91939494387582 8.209334261443983 0 0 0
737 82 2 0.06 18.39306914305964 15.51483951333787 9.744320427554745 0 0 0
2139 238 2 0.06 23.096161316068724 22.82159254714286 5.191517724448017 0 0 0
861 96 2 0.06 18.449290843979256 16.107577937642716 5.314298168377441 0 0 0
1023 114 2 0.06 25.923284238508757 24.134066750965033 8.713413348119666 0 0 0
1054 118 1 -0.18 25.660720430012482 27.66044232483189 7.395536957485956 0 0 0
1055 118 5 0.145 25.116391560723564 26.77188402941049 6.27269597497325 0 0 0
1056 118 3 -0.6830000000000001 23.857241320313683 27.243235700117364 5.839956217149513 0 0 0
1057 118 2 0.06 24.988904011471384 27.673303053864117 8.25411520798743 0 0 0
1058 118 2 0.06 25.797683610854996 28.68671403224861 7.055444702926605 0 0 0
1059 118 2 0.06 26.627515851662064 27.291802407706776 7.74110646099609 0 0 0
1060 118 2 0.06 25.019288742001287 25.743805934461708 6.619488399668203 0 0 0
1061 118 2 0.06 25.79967030932004 26.760294549174507 5.423707760807898 0 0 0
1062 118 4 0.418 23.516587102375436 26.600764550206907 5.203338952126941 0 0 0
1721 192 5 0.145 23.117868846467783 25.290725319652417 2.762776236128084 0 0 0
1722 192 3 -0.6830000000000001 22.776431972991116 25.38330419141468 4.130346974634581 0 0 0
1726 192 2 0.06 24.150648662704242 24.95437907706425 2.6731501557484836 0 0 0
1382 154 2 0.06 15.339520937980714 18.668587597800965 5.672564707243023 0 0 0
1840 205 2 0.06 25.5899057912926 20.01946195288597 9.08733190653976 0 0 0
292 33 2 0.06 22.80514478461083 20.82595871542911 9.73179738016567 0 0 0
1950 217 2 0.06 15.629878850895212 25.06279654448031 3.930142995175492 0 0 0
262 30 1 -0.18 22.146412975407294 27.277548213311256 9.285448970475212 0 0 0
267 30 2 0.06 22.237731846166763 28.35981603967601 9.385919240970777 0 0 0
1053 117 4 0.418 23.05216848552661 28.78068108612761 6.369657221853418 0 -1 0
96 11 2 0.06 23.069415410976152 15.022755122256203 0.09283003490427494 0 0 1
1710 190 4 0.418 15.163305563902593 16.361043184930917 6.863291362997953 0 0 0
1946 217 5 0.145 15.368513607628723 26.345632115345477 5.663665056916297 0 0 0
2236 249 2 0.06 16.13159709453932 28.092405474054207 16.089755534468285 0 0 0
1888 210 2 0.06 24.79444237018865 28.61752788572838 13.374398514271588 0 0 0
950 106 2 0.06 15.08535557118179 16.112950414832792 11.173632440086873 0 0 0
81 9 4 0.418 21.28827251736394 15.53694380809938 11.444722700426482 0 0 0
289 33 1 -0.18 22.787945800570043 20.731715598863932 10.817262430758467 0 0 0
290 33 5 0.145 21.650301207124183 19.82092615594786 11.284076907399296 0 0 0
291 33 3 -0.6830000000000001 21.742362773943828 18.556935699586447 10.655835356644161 0 0 0
220 25 2 0.06 15.2794723246639 27.880278653368098 11.362378500943164 0 0 0
294 33 2 0.06 22.669152634300698 21.73421447309454 11.225454203586281 0 0 0
295 33 2 0.06 20.68883725870673 20.273114846702693 11.043141648199462 0 0 0
296 33 2 0.06 21.687172786682186 19.691033928839087 12.365916891447169 0 0 0
2064 230 3 -0.6830000000000001 26.59277004737248 19.67988847592561 18.32340502160445 0 0 0
470 53 5 0.145 15.465845987326457 16.80277725963147 16.129326455223197 0 0 0
471 53 3 -0.6830000000000001 16.70550153714365 17.19819042492185 16.683123706316568 0 0 0
472 53 2 0.06 15.743316398007737 17.8526631481074 14.24485993269566 0 0 0
475 53 2 0.06 15.567780202232889 15.80676485093405 15.701008195319625 0 0 0
477 53 4 0.418 16.98110790759216 16.50259300284493 17.294320334496444 0 0 0
514 58 1 -0.18 20.016365614746658 16.97838251355604 13.793634304202781 0 0 0
515 58 5 0.145 20.90762023623054 16.891590680184315 15.03423750062529 0 0 0
516 58 3 -0.6830000000000001 21.256940286024484 18.18970587498177 15.468240612422077 0 0 0
517 58 2 0.06 20.518782043588097 17.502888457028195 12.982204498626489 0 0 0
518 58 2 0.06 19.084094876536472 17.49854460956871 14.012684841386159 0 0 0
519 58 2 0.06 19.76276531942442 15.983347525234652 13.429295924806587 0 0 0
520 58 2 0.06 21.809116258343558 16.323912515524874 14.809423070598008 0 0 0
521 58 2 0.06 20.387580606172964 16.37493521838621 15.841507516527317 0 0 0
522 58 4 0.418 20.473053525983605 18.560253818545018 15.889815870060856 0 0 0
730 82 1 -0.18 17.96465399892466 17.2919396539949 10.886708514028632 0 0 0
605 68 5 0.145 28.7395607167122 25.564232091623634 12.453311952122775 -1 0 0
732 82 3 -0.6830000000000001 20.142417306777617 16.36340328254751 10.35980555099782 0 0 0
734 82 2 0.06 17.90146689337908 16.78324661848148 11.848189720973393 0 0 0
2068 230 2 0.06 26.064584745207412 18.06621604346196 17.18588546842855 0 0 0
738 82 4 0.418 20.5734668161272 17.22622673598543 10.354584659317611 0 0 0
315 35 4 0.418 25.534970439812394 20.8399456919552 19.165444677471537 0 0 0
52 6 2 0.06 16.40589634142073 18.22126021734377 19.251898623690032 0 0 0
1095 122 2 0.06 15.246369279526359 19.023277050191464 10.696282961240684 0 0 0
2062 230 1 -0.18 25.58301432086819 17.694518332135708 19.266799862269014 0 0 0
610 68 2 0.06 27.866803165854346 26.067975333988556 12.037450146444685 -1 0 0
1037 116 5 0.145 17.246182663771428 23.879687429147708 11.916498075559922 0 0 0
1038 116 3 -0.6830000000000001 17.28901379513987 24.060363802477255 13.318294124507597 0 0 0
1043 116 2 0.06 17.876102602680042 23.032089136042327 11.649492992516544 0 0 0
1044 116 4 0.418 16.93367484864479 23.262365772267128 13.727308146746035 0 0 0
75 9 3 -0.6830000000000001 22.03761708106426 15.15253341060112 11.916356018287823 0 0 0
1181 132 5 0.145 16.289708091639298 22.98230407418229 18.35110294977468 0 0 0
1182 132 3 -0.6830000000000001 16.790870524868243 23.181928284180465 17.041331151066217 0 0 0
1186 132 2 0.06 15.886254170179171 21.9733347877997 18.426775133649357 0 0 0
1187 132 2 0.06 17.102094682661914 23.055924202278007 19.071546250766424 0 0 0
1887 210 2 0.06 26.22217362221717 26.630596096012457 13.968217990504145 0 0 0
105 12 2 0.06 24.152643343987165 16.035622320846194 16.33862436206344 0 0 0
1885 210 2 0.06 25.05522296967139 26.204391551141693 12.71970362885429 0 0 0
1630 182 1 -0.18 19.864619820409168 20.811520839201062 17.664044231719053 0 0 0
1631 182 5 0.145 18.80108989597375 19.711128744451823 17.735188993696667 0 0 0
1632 182 3 -0.6830000000000001 18.84083033495527 18.92322582583993 16.564079127427966 0 0 0
1633 182 2 0.06 19.68263850929672 21.48643386138618 16.827796283226295 0 0 0
1634 182 2 0.06 20.86363164963675 20.390417015151368 17.549848143390765 0 0 0
1635 182 2 0.06 19.856711667919196 21.408662209959136 18.57674700635591 0 0 0
1636 182 2 0.06 17.807628627639076 20.14792097353661 17.84328937486144 0 0 0
1637 182 2 0.06 18.968884871998682 19.067533703724 18.598029611697356 0 0 0
1638 182 4 0.418 18.07637691678568 18.33225224332061 16.587205047012578 0 0 0
1784 199 5 0.145 23.25743566741935 20.80952891893924 14.956377601721865 0 0 0
1789 199 2 0.06 22.267098842051066 21.24688733405059 15.07953850194723 0 0 0
2197 245 1 -0.18 17.063462887688754 20.18748357547288 13.238456474729764 0 0 0
2198 245 5 0.145 17.15175137392004 20.84276465548275 14.617782616266663 0 0 0
2199 245 3 -0.6830000000000001 16.283917043370774 21.95069245074371 14.695817381470125 0 0 0
2200 245 2 0.06 17.464303087046673 20.83280253951039 12.456831191328623 0 0 0
2201 245 2 0.06 16.030564761423673 19.944746954879516 12.985717244956678 0 0 0
2202 245 2 0.06 17.633750275375817 19.2586742494847 13.224879699509522 0 0 0
2203 245 2 0.06 18.171693430314473 21.166695868575786 14.83007753523716 0 0 0
2204 245 2 0.06 16.867783396694353 20.134529956386885 15.394474637192063 0 0 0
2205 245 4 0.418 16.397732442511884 22.317779060315196 15.587525585085205 0 0 0
2239 249 2 0.06 15.658501622551004 26.235932411989918 14.476252543190512 0 0 0
1180 132 1 -0.18 15.198691826258516 24.00091075867119 18.687957535148282 0 0 0
293 33 2 0.06 23.76175884150076 20.361709425818262 11.137735999318544 0 0 0
297 33 4 0.418 22.549753071689327 18.133804566747532 10.963247609424643 0 0 0
270 30 4 0.418 22.808519028091133 24.76033487338048 11.225233482626388 0 0 0
310 35 2 0.06 22.821546895029996 20.02235718352414 19.237795560948527 0 0 0
311 35 2 0.06 22.362377320563574 21.705353264748204 19.507853228848322 0 0 0
1884 210 3 -0.6830000000000001 23.029854471562683 27.672487463355775 13.793930795376001 0 0 0
1882 210 1 -0.18 25.15853310911417 26.51749285018222 13.75849020156079 0 0 0
982 110 1 -0.18 29.796692079831832 20.68705295798805 17.327541960587084 0 0 0
983 110 5 0.145 29.164771487263938 20.798426597781507 15.936765099955382 0 0 0
984 110 3 -0.6830000000000001 27.7726063878716 20.56790882174931 16.004496323269127 0 0 0
985 110 2 0.06 29.642206596897946 19.69673491704798 17.75687702877161 0 0 0
986 110 2 0.06 29.375991939437988 21.421714892145776 18.01225970726059 0 0 0
611 68 2 0.06 28.648382595779104 25.598276215022807 13.5389122037507 -1 0 0
988 110 2 0.06 29.613701444628308 20.075098247349484 15.25576531676435 0 0 0
989 110 2 0.06 29.336904398881433 21.79021175924269 15.517890581723504 0 0 0
990 110 4 0.418 27.41612422127722 20.766253334940615 15.12998930538725 0 0 0
1464 163 2 0.06 27.46517984198418 24.533223651654 15.61218087100821 0 0 0
1465 163 2 0.06 26.881638824684146 22.767033202305406 17.29912733591063 0 0 0
1466 163 2 0.06 25.444365050787525 23.31932599930282 16.458798031005838 0 0 0
1540 172 1 -0.18 28.60626925152871 20.56143171424603 12.083435246918446 0 0 0
1541 172 5 0.145 27.20127106677581 20.251232096442894 12.611047826829607 0 0 0
1542 172 3 -0.6830000000000001 26.761142398328502 21.24292266156768 13.521679142970948 0 0 0
1543 172 2 0.06 29.338477157759307 20.62067580294793 12.888505339052697 0 0 0
1544 172 2 0.06 28.63101873127799 21.503022644022774 11.536425407744186 0 0 0
1545 172 2 0.06 28.935139487673187 19.77776882645848 11.399013323841181 0 0 0
1546 172 2 0.06 27.201639079895934 19.280321576841455 13.104785825684996 0 0 0
1547 172 2 0.06 26.493380809805743 20.19798243982157 11.784406001401196 0 0 0
1039 116 2 0.06 15.157042477671178 24.474769287981136 11.698293025819144 0 0 0
1783 199 1 -0.18 23.87598469763962 20.52880230349066 16.326526636390646 0 0 0
1785 199 3 -0.6830000000000001 24.072818810122456 21.682592881442396 14.195907607683848 0 0 0
1786 199 2 0.06 23.944510457891237 21.43103222924514 16.932343674957384 0 0 0
1787 199 2 0.06 24.874907881015467 20.10421737662346 16.230557062043225 0 0 0
1788 199 2 0.06 23.268433556367324 19.808675348248464 16.87679451708882 0 0 0
1790 199 2 0.06 23.127459590548572 19.875697186930793 14.41290558816382 0 0 0
1791 199 4 0.418 24.94584614455588 21.29562638417915 14.108302744999163 0 0 0
1839 205 3 -0.6830000000000001 26.40895184245234 17.885581924830387 10.53210378118418 0 0 0
2022 225 2 0.06 19.210910278888594 26.692428278878168 10.736009604981751 0 0 0
2233 249 1 -0.18 15.554920478887261 27.221881557193083 16.398433448108808 0 0 0
1845 205 4 0.418 25.586158285688196 17.536302553880137 10.886827346658535 0 0 0
1972 220 1 -0.18 25.344801199056178 16.95840156851915 13.595936836502393 0 0 0
1973 220 5 0.145 24.191350149330546 17.672735786703523 12.886766343326979 0 0 0
1974 220 3 -0.6830000000000001 23.938165114374815 17.098115269884595 11.615949598836139 0 0 0
1975 220 2 0.06 26.286141379198284 17.070460451886195 13.058503809135466 0 0 0
1976 220 2 0.06 25.148363775407155 15.892949036734928 13.68919711823537 0 0 0
1978 220 2 0.06 24.437277152585466 18.726002651095204 12.76406532237523 0 0 0
1979 220 2 0.06 23.282831745852846 17.617229530594784 13.485218302222705 0 0 0
1980 220 4 0.418 23.39660300070068 16.30819446427556 11.758677725123784 0 0 0
792 88 4 0.418 26.61972622468614 24.7732225782067 19.717393770488833 0 0 0
2069 230 2 0.06 27.47490434062606 17.83743411355455 18.205558413993877 0 0 0
2070 230 4 0.418 27.077916539905708 20.010008302044966 17.554201559061344 0 0 0
66 8 3 -0.6830000000000001 22.07962478287523 26.28247128547857 15.973399517355267 0 0 0
68 8 2 0.06 21.32837283644246 24.076480284106356 17.330854037225574 0 0 0
71 8 2 0.06 22.3262588889429 26.369502742768024 18.002273559698747 0 0 0
72 8 4 0.418 21.16451205470301 26.518330927298543 16.16968398503382 0 0 0
1042 116 2 0.06 17.6625987843506 24.756947993196505 11.424292631355598 0 0 0
1022 114 2 0.06 25.36289076298203 25.172827277509857 10.010798766635634 0 0 0
264 30 3 -0.6830000000000001 22.57075002428311 25.16402673061699 10.382638841025479 0 0 0
606 68 3 -0.6830000000000001 28.731596081395807 24.217301262520607 12.030242349200655 -1 0 0
973 109 1 -0.18 20.550437664675467 29.216182152593642 16.685961060460645 0 0 0
974 109 5 0.145 19.285797361409067 28.375302715878245 16.892076623453633 0 0 0
975 109 3 -0.6830000000000001 19.471716264796015 27.09807208923677 16.309562501164155 0 0 0
976 109 2 0.06 20.794029079925664 29.31508597658675 15.627399742795795 0 0 0
977 109 2 0.06 21.410654883294175 28.775582786669666 17.18950952722786 0 0 0
1554 173 2 0.06 21.666789555456344 28.526674297230237 19.66754866321261 0 0 0
979 109 2 0.06 18.42952271617305 28.864688086934393 16.42858565791834 0 0 0
980 109 2 0.06 19.058753604129947 28.27602783652094 17.95293963972637 0 0 0
981 109 4 0.418 18.615955335126106 26.65091604585999 16.248637060028802 0 0 0
733 82 2 0.06 18.36442543947992 18.292587790522106 11.05351637512919 0 0 0
1094 122 2 0.06 16.62067030517423 20.00741009694544 10.201525329124292 0 0 0
1883 210 5 0.145 24.41262853362788 27.829886346948822 14.023264781154518 0 0 0
1184 132 2 0.06 15.595253215998909 25.012552564270365 18.75000609197524 0 0 0
1188 132 4 0.418 17.100603454086805 24.08256425548411 16.955225108430184 0 0 0
1486 166 1 -0.18 20.86928231074397 23.418995211012785 12.919356012146203 0 0 0
1487 166 5 0.145 22.07217733547343 24.235874906436226 13.400303830296172 0 0 0
1488 166 3 -0.6830000000000001 23.26143302257968 23.816448657216323 12.757952403052608 0 0 0
1489 166 2 0.06 21.008025628158904 22.354187720958695 13.106689108615278 0 0 0
1490 166 2 0.06 20.687956803032005 23.559380910847548 11.853473699205002 0 0 0
1491 166 2 0.06 19.970022938554077 23.728461184367927 13.452041640679088 0 0 0
1492 166 2 0.06 22.19977983983843 24.106944371417747 14.472286188006764 0 0 0
1493 166 2 0.06 21.904045230746988 25.29546657136711 13.220258739696057 0 0 0
1494 166 4 0.418 23.542714659079486 23.027909563852592 13.245605720266127 0 0 0
2234 249 5 0.145 15.880418915964293 26.013582549345777 15.520172585835876 0 0 0
1977 220 2 0.06 25.491063355020074 17.365434821542646 14.597128894170842 0 0 0
2017 225 1 -0.18 18.77219177889509 27.41645651699052 11.423170698496568 0 0 0
2018 225 5 0.145 19.259114169036472 27.16564022671167 12.852855155468388 0 0 0
2019 225 3 -0.6830000000000001 18.71191358341055 28.116432612021985 13.737771750157126 0 0 0
2021 225 2 0.06 17.68854814564573 27.321728716214793 11.357706402376415 0 0 0
2023 225 2 0.06 20.3444736088772 27.225660280660428 12.91007618870886 0 0 0
2024 225 2 0.06 18.97701721699841 26.168071448991885 13.185258470428138 0 0 0
2025 225 4 0.418 19.04166090250575 27.889007492436214 14.606623752563015 0 0 0
2098 234 1 -0.18 19.44167463640826 25.16740141817204 19.412986825411647 0 0 0
2099 234 5 0.145 18.280252725461416 26.09884040048972 19.770224900653524 0 0 0
1886 210 2 0.06 24.781302419267647 25.71331335849274 14.392051532707223 0 0 0
2101 234 2 0.06 19.09336669379691 24.212964852478247 19.020837815174207 0 0 0
951 106 2 0.06 15.856946023847149 15.819849472581762 12.731016767490127 0 0 0
2103 234 2 0.06 20.061149778717343 25.627219894589672 18.643704696282406 0 0 0
2104 234 2 0.06 17.661307794781816 26.269632463894528 18.890235440076804 0 0 0
612 68 4 0.418 27.819497095231192 23.914526573246366 12.084311852596613 -1 0 0
1890 210 4 0.418 22.670171394828415 27.183339493447544 14.542115289228633 0 0 0
2063 230 5 0.145 26.47953474978953 18.280996235118348 18.170706663382845 0 0 0
2235 249 3 -0.6830000000000001 17.24678511905043 25.665648291114657 15.626424114429854 0 0 0
2020 225 2 0.06 19.046278164041514 28.4112980115316 11.074013257338551 0 0 0
2237 249 2 0.06 15.77058273735925 27.022197516788736 17.44573210014226 0 0 0
2241 249 4 0.418 17.425632245425643 25.14664636987477 14.832039537253243 0 0 0
64 8 1 -0.18 22.39550016490113 24.296577714002655 17.360508900997242 0 0 0
65 8 5 0.145 22.687304876055524 25.789065757126583 17.153954075429155 0 0 0
67 8 2 0.06 22.88800032169267 23.68699028085337 16.603212976981762 0 0 0
69 8 2 0.06 22.776506102910812 23.9661916508546 18.328074733570666 0 0 0
70 8 2 0.06 23.76500387935089 25.94170960929865 17.09437885002951 0 0 0
2065 230 2 0.06 24.576658122827737 18.11227090967404 19.21982866069052 0 0 0
263 30 5 0.145 22.654087745239455 26.56691650440728 10.542273444450913 0 0 0
2240 249 2 0.06 15.268566498757995 25.15580676443076 15.798546402841946 0 0 0
1889 210 2 0.06 24.560463050037544 28.149593633441967 15.054881078209396 0 0 0
946 106 1 -0.18 15.033220048463075 15.516931354929598 12.084413532670457 0 0 0
268 30 2 0.06 22.059796957474365 26.86677642328074 11.402579727724003 0 0 0
269 30 2 0.06 23.68500620669685 26.84829632040451 10.753769849227144 0 0 0
1019 114 5 0.145 25.891356845602683 23.153367451818884 10.64463083341567 0 0 0
1020 114 3 -0.6830000000000001 26.026002769918335 23.478863291398294 12.019574399458516 0 0 0
1024 114 2 0.06 26.62443896887432 22.39363668204677 10.373118252797122 0 0 0
1025 114 2 0.06 24.904730617920602 22.718035835297858 10.483061429497795 0 0 0
1026 114 4 0.418 25.1701485052861 23.814397880429333 12.301992104940272 0 0 0
1459 163 1 -0.18 27.026089274493934 24.801822070023082 16.573823647271936 0 0 0
1460 163 5 0.145 26.2301961145389 23.627051255604627 17.148432131878202 0 0 0
1461 163 3 -0.6830000000000001 25.655036682240084 23.98396994981114 18.388511461778435 0 0 0
1462 163 2 0.06 27.838857943571877 25.090269516189622 17.241384650688346 0 0 0
1463 163 2 0.06 26.388439967468805 25.67234672281965 16.421052326590996 0 0 0
1467 163 4 0.418 25.322638558400353 23.166791905539668 18.784806010039937 0 0 0
1548 172 4 0.418 26.592843882481354 22.044875733169278 13.014769570104255 0 0 0
309 35 3 -0.6830000000000001 25.044199541853477 21.590381969629483 19.52787566311395 0 0 0
1160 129 2 0.06 15.106207982380022 27.58235941078769 19.5430670096427 0 0 0
307 35 1 -0.18 22.79195085477956 20.820927918563076 19.978944911811368 0 0 0
788 88 2 0.06 28.144809143353548 22.77665139590979 19.42797313415535 0 0 0
2067 230 2 0.06 25.495847680048467 16.612971983488247 19.1573132634745 0 0 0
1036 116 1 -0.18 15.811623481268605 23.643760641968118 11.43475069260531 0 0 0
735 82 2 0.06 16.95084712304947 17.397560933146995 10.50391516491513 0 0 0
843 94 2 0.06 20.595690470665485 29.628241631128105 12.366109639119923 0 -1 0
1040 116 2 0.06 15.38955287577395 22.73236204913633 11.859283249195448 0 0 0
1029 115 3 -0.6830000000000001 17.564008157522988 15.16014049127769 18.300324866948827 0 0 0
1093 122 2 0.06 15.016549160629477 20.728325581158234 10.351520546190274 0 0 0
913 102 2 0.06 17.779646243086813 15.232112721567562 14.705868735089117 0 0 0
1041 116 2 0.06 15.789039809022071 23.53566475933841 10.351594404627505 0 0 0
469 53 1 -0.18 15.013566782865178 17.78944429312893 15.050688135861897 0 0 0
100 12 1 -0.18 23.898964069180995 15.013930384360533 16.623886751563596 0 0 0
104 12 2 0.06 22.856317415585536 15.016390495862057 16.94284265815762 0 0 0
1090 122 1 -0.18 15.557342429168077 19.835048845364074 10.037868999254936 0 0 0
1981 221 1 -0.18 16.130877363149782 15.452328061735592 27.638107196875588 0 0 0
2178 242 4 0.418 15.855372095769209 29.129682798685884 22.554216552417707 0 0 0
53 6 2 0.06 16.043909090753996 17.907401916318957 20.934818954020155 0 0 0
54 6 4 0.418 16.609820349795896 20.043773318985362 20.497218961878215 0 0 0
55 7 1 -0.18 19.767483026390828 17.953828294600026 26.009147101173262 0 0 0
56 7 5 0.145 19.914821069636314 16.498770167160195 26.467964692134462 0 0 0
57 7 3 -0.6830000000000001 19.939117984020132 15.616854633305698 25.36704879566546 0 0 0
58 7 2 0.06 18.84285347197406 18.104560449561937 25.454309986546033 0 0 0
59 7 2 0.06 20.599598709661098 18.252046657334354 25.37066019426711 0 0 0
60 7 2 0.06 19.74924385081313 18.628857711121487 26.86577745009956 0 0 0
61 7 2 0.06 19.092273176137553 16.215622770920945 27.12424112810531 0 0 0
62 7 2 0.06 20.837285547884925 16.37033900763621 27.03410458460592 0 0 0
1444 161 2 0.06 26.698805159531037 17.581710718716465 29.539641893495492 0 0 -1
1500 167 2 0.06 16.16018200493397 23.873513536584507 29.992083160904773 0 0 -1
145 17 1 -0.18 17.514714982688684 21.672164207536664 25.86309254929638 0 0 0
147 17 3 -0.6830000000000001 18.8512838235138 23.081275468891167 27.322856846287 0 0 0
148 17 2 0.06 18.084566082383184 20.7819852834803 26.12923316559078 0 0 0
149 17 2 0.06 17.937862777664456 22.084468603984664 24.947171230029525 0 0 0
153 17 4 0.418 19.241327672269474 23.520340253279944 26.560007804893154 0 0 0
312 35 2 0.06 22.11172622771928 20.508588158231657 20.771926246944588 0 0 0
415 47 1 -0.18 23.519434700997625 15.605320061497238 24.82155776608232 0 0 0
418 47 2 0.06 22.867680779582585 15.245878822807672 24.026352154131565 0 0 0
419 47 2 0.06 23.100019885656277 16.540223288728495 25.19401345451963 0 0 0
757 85 1 -0.18 16.290298232595262 19.169978096796672 28.21682034856381 0 0 0
758 85 5 0.145 17.243273384111504 19.48392145993871 29.374550981541102 0 0 0
2084 232 2 0.06 24.275607921305305 24.56188467225835 21.164824669719188 0 0 0
790 88 2 0.06 27.83294356826794 24.083252882067768 22.18692476064973 0 0 0
1557 173 4 0.418 19.747321106047934 29.09233339655006 23.208969606593516 0 0 0
762 85 2 0.06 16.845865183236693 18.959855671093752 27.302879917951174 0 0 0
763 85 2 0.06 17.82696715804071 20.379091985028325 29.159169671464518 0 0 0
764 85 2 0.06 17.948120242945166 18.666623089245814 29.5235612706783 0 0 0
2082 232 3 -0.6830000000000001 25.842455444131538 26.159071485455996 22.747907589236593 0 0 0
1315 147 1 -0.18 16.39019174032153 18.11684919532741 23.925826719766977 0 0 0
1316 147 5 0.145 16.461948924297705 16.592793246033576 24.03552002670598 0 0 0
1317 147 3 -0.6830000000000001 16.602319657548303 16.005581290728223 22.755799677387625 0 0 0
1318 147 2 0.06 15.574778766200037 18.431687997699107 23.27598912572229 0 0 0
1319 147 2 0.06 17.316097995846757 18.52220737538716 23.523672031099995 0 0 0
1320 147 2 0.06 16.224767621059698 18.57032491624838 24.9038486842687 0 0 0
1321 147 2 0.06 15.558437682385568 16.218916541333016 24.514581210213965 0 0 0
1322 147 2 0.06 17.306212119156736 16.29799543532414 24.65810189147152 0 0 0
1323 147 4 0.418 17.374468647846285 16.3849051856172 22.336749592697895 0 0 0
1346 150 2 0.06 21.406855329682394 26.485136912640957 24.631252942241836 0 0 0
1594 178 1 -0.18 21.15615124834522 17.27528827417115 21.505001592210835 0 0 0
1595 178 5 0.145 19.82833508116415 16.85456722024783 22.142437992315863 0 0 0
1596 178 3 -0.6830000000000001 18.735817237375926 17.15228264707142 21.28577728355402 0 0 0
1597 178 2 0.06 21.167328092780654 18.34071678063812 21.277008764869695 0 0 0
1599 178 2 0.06 21.98680491275356 17.07620953069213 22.185216727672753 0 0 0
1600 178 2 0.06 19.693731911061256 17.376114577244103 23.089496273276517 0 0 0
1601 178 2 0.06 19.839168836362187 15.789493324202121 22.369250066112556 0 0 0
1602 178 4 0.418 18.774235893257845 16.575889308991865 20.52614730612148 0 0 0
1343 150 5 0.145 21.257871327855494 24.318046254003093 24.861121080522175 0 0 0
1927 215 1 -0.18 18.831733033076308 22.218431164073234 21.751444563126274 0 0 0
1928 215 5 0.145 18.707651657949704 20.74642708459484 22.158667868536313 0 0 0
1929 215 3 -0.6830000000000001 18.349569540759077 19.953071375126644 21.04429312680371 0 0 0
1931 215 2 0.06 19.612621921842376 22.35922597144755 21.00394177973819 0 0 0
1934 215 2 0.06 19.652732661865368 20.385067219217415 22.564577816949832 0 0 0
1935 215 4 0.418 18.516301511724027 19.02961520841864 21.261482664169773 0 0 0
2100 234 3 -0.6830000000000001 17.48576537536196 25.566387131977642 20.811161369864333 0 0 0
2081 232 5 0.145 24.540446919724157 26.42198194776244 22.27276078834247 0 0 0
786 88 3 -0.6830000000000001 27.088936692978002 25.02211812989192 20.521396702122242 0 0 0
785 88 5 0.145 27.455418232663842 23.83252157385821 21.19569724883816 0 0 0
1986 221 2 0.06 16.66599743743942 15.47899461405193 28.587691964313265 0 0 0
48 6 3 -0.6830000000000001 15.687988273207234 19.82062320461516 20.312155911886624 0 0 0
308 35 5 0.145 24.186416281634113 21.11310022637164 20.543236558774336 0 0 0
2083 232 2 0.06 23.757892924109903 24.474425279927146 22.849410653103774 0 0 0
313 35 2 0.06 24.62158231953256 20.217523013963767 20.987546638030555 0 0 0
314 35 2 0.06 24.117217603812787 21.865717556483467 21.328223075345825 0 0 0
416 47 5 0.145 24.95792186367821 15.793541829875485 24.32505304605281 0 0 0
417 47 3 -0.6830000000000001 24.993744437671587 16.69650385421918 23.238841112828887 0 0 0
1344 150 3 -0.6830000000000001 19.852204584280617 24.281382786001227 25.00466993738577 0 0 0
422 47 2 0.06 25.58834728901765 16.175981448027862 25.127768281327896 0 0 0
423 47 4 0.418 25.899738817061117 16.80726565047013 22.98472191335471 0 0 0
784 88 1 -0.18 28.520285003514175 23.062802574302907 20.40949907579032 0 0 0
787 88 2 0.06 29.422416789194333 23.6591836696744 20.27056856317601 0 0 0
1342 150 1 -0.18 21.80998106922722 25.691217598046453 25.261130404871583 0 0 0
789 88 2 0.06 28.801350344695056 22.14854850381505 20.933587232612357 0 0 0
2085 232 2 0.06 22.767735282892602 25.321378754825968 21.66319207784941 0 0 0
791 88 2 0.06 26.567160613720525 23.21554292808212 21.331486957532782 0 0 0
1626 181 2 0.06 23.590364253770517 15.043680595142918 21.249905587679518 0 0 0
955 107 1 -0.18 28.255455117516295 16.858304019841494 22.13906428456393 0 0 0
956 107 5 0.145 29.55768354470919 16.120414189991106 22.459073218318615 0 0 0
761 85 2 0.06 15.675694653933427 18.297985324654878 28.43743622105306 0 0 0
958 107 2 0.06 27.79642385101849 17.244820120483585 23.047581024664204 0 0 0
959 107 2 0.06 27.54444688929657 16.203600182671465 21.63660317072434 0 0 0
960 107 2 0.06 28.45167145004681 17.70546994517191 21.4806896952675 0 0 0
2102 234 2 0.06 20.07798164062713 24.966121643682925 20.275034634072572 0 0 0
2105 234 2 0.06 18.661169079929664 27.06747804264209 20.089162271686458 0 0 0
1347 150 2 0.06 22.896036576792245 25.714100302321388 25.15828334887471 0 0 0
1349 150 2 0.06 21.508991028504393 24.09463213007016 23.82439702319804 0 0 0
1598 178 2 0.06 21.35173752828826 16.728191698383153 20.582275815270417 0 0 0
47 6 5 0.145 15.691415175318044 18.429754485136694 20.047658033799532 0 0 0
2088 232 4 0.418 26.37435794253345 25.859638749318123 22.004562433913474 0 0 0
1348 150 2 0.06 21.702284357990738 23.540587037377776 25.48259941169276 0 0 0
1984 221 2 0.06 16.337403899111507 16.384297667056625 27.112835200674343 0 0 0
1345 150 2 0.06 21.57162612427667 25.927513581385092 26.298634377400955 0 0 0
2066 230 2 0.06 25.985463438226997 17.894721368246753 20.259721470639303 0 0 0
1971 219 4 0.418 15.120612746369094 20.774721497222316 21.83825963183336 0 0 0
760 85 2 0.06 15.622501976348001 20.006714975149706 28.009026824242245 0 0 0
146 17 5 0.145 17.529755258354815 22.70570212689877 26.994527626532896 0 0 0
150 17 2 0.06 16.49453176188582 21.357381582198265 25.638899817940285 0 0 0
151 17 2 0.06 17.048557165183745 22.296954383074553 27.88235260074984 0 0 0
152 17 2 0.06 16.971155954552692 23.593907189333226 26.70199262761038 0 0 0
2087 232 2 0.06 24.61563096925701 27.034856242102013 21.374909535710643 0 0 0
2080 232 1 -0.18 23.793887512201117 25.11735731755086 21.970391941625603 0 0 0
1155 129 3 -0.6830000000000001 15.902261624586451 27.78065914105688 21.405637152743807 0 0 0
1161 129 4 0.418 16.4413239878001 27.009360929227633 21.201250865141628 0 0 0
1350 150 4 0.418 19.4763260972595 24.83962982551145 24.318150411947084 0 0 0
1549 173 1 -0.18 21.531264429661338 28.137375243050418 20.67724394458904 0 0 0
1550 173 5 0.145 20.54430259517678 29.002583116398995 21.463473373967236 0 0 0
1551 173 3 -0.6830000000000001 20.319527204592447 28.461714605575732 22.74701900113403 0 0 0
1552 173 2 0.06 21.18610357287923 27.10766647942919 20.59644354476395 0 0 0
1553 173 2 0.06 22.50651557686205 28.130766934461953 21.16071526197171 0 0 0
1446 161 2 0.06 25.249124408173074 16.704872281860485 29.0594013288779 0 0 -1
1555 173 2 0.06 19.592261680008193 29.079216093730974 20.93877766392219 0 0 0
1603 179 1 -0.18 16.801352257731036 25.609521742559053 24.163417322495796 0 0 0
1604 179 5 0.145 17.935369763621015 26.62666078622503 24.012476339769584 0 0 0
1605 179 3 -0.6830000000000001 18.915391662395034 26.143279531902408 23.111251085398898 0 0 0
1606 179 2 0.06 17.171648328433047 24.63916126405052 24.491432946829637 0 0 0
1607 179 2 0.06 16.270568495746843 25.466890136444373 23.222163493770005 0 0 0
1608 179 2 0.06 16.074691207370257 25.95161707886888 24.900763878169172 0 0 0
1609 179 2 0.06 18.40277432860285 26.834379694779045 24.976133556753297 0 0 0
1610 179 2 0.06 17.54460636625684 27.571197048723526 23.637614050722778 0 0 0
1611 179 4 0.418 19.530767420424706 26.876959512867185 22.96594242679019 0 0 0
1930 215 2 0.06 17.897166222731077 22.600151652415853 21.341137955328175 0 0 0
1932 215 2 0.06 19.08571666436246 22.835810865147522 22.614288614061426 0 0 0
1933 215 2 0.06 17.95361015058245 20.637281643351447 22.93746656837313 0 0 0
1969 219 2 0.06 15.623800486751648 23.046159753647743 21.959081311673476 0 0 0
2106 234 4 0.418 18.004112237601362 25.593459217114173 21.624392191746157 0 0 0
2086 232 2 0.06 23.99910940293835 26.998353220364457 23.022789740725127 0 0 0
2172 242 3 -0.6830000000000001 15.830841098394387 29.794517017879492 23.255298317761977 0 0 0
1966 219 2 0.06 15.03430949195945 23.260912705656317 24.417148971318365 0 0 0
1441 161 1 -0.18 25.77865731461632 17.13063690994511 29.91221811883926 0 0 -1

Velocities

142 0 0 0
1113 0 0 0
1216 0 0 0
1219 0 0 0
1220 0 0 0
1221 0 0 0
1567 0 0 0
1568 0 0 0
1570 0 0 0
1572 0 0 0
1573 0 0 0
1675 0 0 0
1676 0 0 0
1677 0 0 0
1679 0 0 0
1681 0 0 0
1682 0 0 0
1683 0 0 0
1820 0 0 0
1821 0 0 0
1825 0 0 0
1826 0 0 0
1827 0 0 0
1938 0 0 0
1944 0 0 0
2224 0 0 0
2225 0 0 0
2226 0 0 0
2227 0 0 0
2228 0 0 0
2229 0 0 0
2230 0 0 0
2231 0 0 0
2232 0 0 0
1125 0 0 0
593 0 0 0
508 0 0 0
509 0 0 0
2246 0 0 0
534 0 0 0
540 0 0 0
1009 0 0 0
1010 0 0 0
1011 0 0 0
1012 0 0 0
1013 0 0 0
1014 0 0 0
1015 0 0 0
1016 0 0 0
1017 0 0 0
1217 0 0 0
1218 0 0 0
1222 0 0 0
1223 0 0 0
1224 0 0 0
1288 0 0 0
1289 0 0 0
1290 0 0 0
1291 0 0 0
1292 0 0 0
2247 0 0 0
1294 0 0 0
1295 0 0 0
1296 0 0 0
1396 0 0 0
1397 0 0 0
1399 0 0 0
1400 0 0 0
1401 0 0 0
1706 0 0 0
1276 0 0 0
1450 0 0 0
1451 0 0 0
1452 0 0 0
1453 0 0 0
1454 0 0 0
1455 0 0 0
1456 0 0 0
1457 0 0 0
1819 0 0 0
1822 0 0 0
1823 0 0 0
1824 0 0 0
278 0 0 0
181 0 0 0
182 0 0 0
183 0 0 0
1271 0 0 0
186 0 0 0
187 0 0 0
188 0 0 0
189 0 0 0
535 0 0 0
1398 0 0 0
1277 0 0 0
1270 0 0 0
1000 0 0 0
1001 0 0 0
1002 0 0 0
1003 0 0 0
586 0 0 0
1228 0 0 0
1006 0 0 0
1007 0 0 0
141 0 0 0
1231 0 0 0
1306 0 0 0
1307 0 0 0
1308 0 0 0
1309 0 0 0
1310 0 0 0
1311 0 0 0
1312 0 0 0
1313 0 0 0
1314 0 0 0
1569 0 0 0
904 0 0 0
1960 0 0 0
1575 0 0 0
1678 0 0 0
1680 0 0 0
2243 0 0 0
2248 0 0 0
2249 0 0 0
1939 0 0 0
1008 0 0 0
2250 0 0 0
1853 0 0 0
433 0 0 0
434 0 0 0
435 0 0 0
436 0 0 0
437 0 0 0
438 0 0 0
439 0 0 0
440 0 0 0
441 0 0 0
460 0 0 0
1273 0 0 0
463 0 0 0
464 0 0 0
465 0 0 0
1961 0 0 0
532 0 0 0
533 0 0 0
536 0 0 0
537 0 0 0
538 0 0 0
539 0 0 0
564 0 0 0
592 0 0 0
136 0 0 0
1293 0 0 0
563 0 0 0
923 0 0 0
2245 0 0 0
2242 0 0 0
1072 0 0 0
1073 0 0 0
1074 0 0 0
1075 0 0 0
1076 0 0 0
1077 0 0 0
1078 0 0 0
1079 0 0 0
1080 0 0 0
1406 0 0 0
1407 0 0 0
1274 0 0 0
1413 0 0 0
1458 0 0 0
1230 0 0 0
591 0 0 0
277 0 0 0
589 0 0 0
1876 0 0 0
1954 0 0 0
1957 0 0 0
1958 0 0 0
1959 0 0 0
1272 0 0 0
1412 0 0 0
922 0 0 0
1955 0 0 0
2244 0 0 0
587 0 0 0
1226 0 0 0
276 0 0 0
184 0 0 0
139 0 0 0
1275 0 0 0
1574 0 0 0
185 0 0 0
190 0 0 0
191 0 0 0
193 0 0 0
194 0 0 0
195 0 0 0
196 0 0 0
197 0 0 0
298 0 0 0
301 0 0 0
799 0 0 0
303 0 0 0
2128 0 0 0
1420 0 0 0
796 0 0 0
1513 0 0 0
1514 0 0 0
1515 0 0 0
1516 0 0 0
1517 0 0 0
1520 0 0 0
1521 0 0 0
1804 0 0 0
1806 0 0 0
1918 0 0 0
1919 0 0 0
1920 0 0 0
1921 0 0 0
1922 0 0 0
1923 0 0 0
1924 0 0 0
1925 0 0 0
1926 0 0 0
501 0 0 0
1937 0 0 0
1812 0 0 0
671 0 0 0
1941 0 0 0
1942 0 0 0
1943 0 0 0
192 0 0 0
198 0 0 0
299 0 0 0
304 0 0 0
370 0 0 0
371 0 0 0
372 0 0 0
373 0 0 0
374 0 0 0
375 0 0 0
376 0 0 0
377 0 0 0
378 0 0 0
500 0 0 0
640 0 0 0
641 0 0 0
642 0 0 0
643 0 0 0
644 0 0 0
645 0 0 0
646 0 0 0
647 0 0 0
648 0 0 0
667 0 0 0
668 0 0 0
670 0 0 0
1232 0 0 0
544 0 0 0
503 0 0 0
676 0 0 0
677 0 0 0
678 0 0 0
679 0 0 0
680 0 0 0
681 0 0 0
682 0 0 0
683 0 0 0
684 0 0 0
1879 0 0 0
499 0 0 0
800 0 0 0
1533 0 0 0
1576 0 0 0
1577 0 0 0
1578 0 0 0
1579 0 0 0
1580 0 0 0
1581 0 0 0
1582 0 0 0
1583 0 0 0
1437 0 0 0
1878 0 0 0
1880 0 0 0
541 0 0 0
1402 0 0 0
2111 0 0 0
2193 0 0 0
2191 0 0 0
424 0 0 0
425 0 0 0
426 0 0 0
427 0 0 0
428 0 0 0
429 0 0 0
430 0 0 0
1875 0 0 0
432 0 0 0
543 0 0 0
547 0 0 0
1661 0 0 0
658 0 0 0
659 0 0 0
660 0 0 0
661 0 0 0
662 0 0 0
664 0 0 0
665 0 0 0
666 0 0 0
1198 0 0 0
1199 0 0 0
1201 0 0 0
1202 0 0 0
1203 0 0 0
1204 0 0 0
1205 0 0 0
1206 0 0 0
2192 0 0 0
954 0 0 0
1227 0 0 0
756 0 0 0
1229 0 0 0
2115 0 0 0
1940 0 0 0
1233 0 0 0
751 0 0 0
496 0 0 0
1200 0 0 0
2108 0 0 0
2109 0 0 0
542 0 0 0
2195 0 0 0
1404 0 0 0
1518 0 0 0
1519 0 0 0
1801 0 0 0
1802 0 0 0
1803 0 0 0
1805 0 0 0
1807 0 0 0
1808 0 0 0
1809 0 0 0
1851 0 0 0
1900 0 0 0
1903 0 0 0
1904 0 0 0
1905 0 0 0
199 0 0 0
202 0 0 0
203 0 0 0
204 0 0 0
794 0 0 0
225 0 0 0
948 0 0 0
483 0 0 0
498 0 0 0
504 0 0 0
663 0 0 0
669 0 0 0
673 0 0 0
748 0 0 0
749 0 0 0
752 0 0 0
753 0 0 0
754 0 0 0
755 0 0 0
548 0 0 0
939 0 0 0
2194 0 0 0
945 0 0 0
991 0 0 0
992 0 0 0
993 0 0 0
994 0 0 0
995 0 0 0
996 0 0 0
997 0 0 0
998 0 0 0
999 0 0 0
1810 0 0 0
1811 0 0 0
1813 0 0 0
1814 0 0 0
1815 0 0 0
1816 0 0 0
1828 0 0 0
1829 0 0 0
1847 0 0 0
1832 0 0 0
1833 0 0 0
1936 0 0 0
1835 0 0 0
1818 0 0 0
1846 0 0 0
1849 0 0 0
1850 0 0 0
1873 0 0 0
1877 0 0 0
497 0 0 0
1956 0 0 0
1852 0 0 0
1962 0 0 0
502 0 0 0
1874 0 0 0
302 0 0 0
1539 0 0 0
1436 0 0 0
2190 0 0 0
2196 0 0 0
2188 0 0 0
2189 0 0 0
1881 0 0 0
545 0 0 0
305 0 0 0
2130 0 0 0
793 0 0 0
795 0 0 0
798 0 0 0
1267 0 0 0
672 0 0 0
1225 0 0 0
674 0 0 0
300 0 0 0
306 0 0 0
2114 0 0 0
431 0 0 0
1252 0 0 0
561 0 0 0
901 0 0 0
567 0 0 0
577 0 0 0
578 0 0 0
580 0 0 0
581 0 0 0
582 0 0 0
712 0 0 0
713 0 0 0
714 0 0 0
715 0 0 0
717 0 0 0
718 0 0 0
719 0 0 0
1243 0 0 0
1244 0 0 0
1245 0 0 0
1246 0 0 0
1247 0 0 0
1248 0 0 0
1249 0 0 0
1250 0 0 0
1251 0 0 0
1414 0 0 0
1256 0 0 0
1416 0 0 0
1417 0 0 0
1418 0 0 0
1419 0 0 0
1859 0 0 0
379 0 0 0
380 0 0 0
381 0 0 0
382 0 0 0
383 0 0 0
384 0 0 0
385 0 0 0
386 0 0 0
387 0 0 0
559 0 0 0
560 0 0 0
562 0 0 0
230 0 0 0
565 0 0 0
566 0 0 0
579 0 0 0
585 0 0 0
1117 0 0 0
1118 0 0 0
1120 0 0 0
1121 0 0 0
1122 0 0 0
1124 0 0 0
482 0 0 0
1584 0 0 0
1146 0 0 0
1151 0 0 0
1817 0 0 0
1152 0 0 0
1422 0 0 0
906 0 0 0
1558 0 0 0
1561 0 0 0
1563 0 0 0
1855 0 0 0
1856 0 0 0
1857 0 0 0
1858 0 0 0
1860 0 0 0
1861 0 0 0
1862 0 0 0
1863 0 0 0
1988 0 0 0
227 0 0 0
228 0 0 0
1415 0 0 0
232 0 0 0
253 0 0 0
254 0 0 0
255 0 0 0
256 0 0 0
257 0 0 0
258 0 0 0
259 0 0 0
260 0 0 0
261 0 0 0
484 0 0 0
1163 0 0 0
1989 0 0 0
2164 0 0 0
546 0 0 0
226 0 0 0
583 0 0 0
716 0 0 0
720 0 0 0
1261 0 0 0
1262 0 0 0
1263 0 0 0
1264 0 0 0
1265 0 0 0
1266 0 0 0
2165 0 0 0
1268 0 0 0
1269 0 0 0
1612 0 0 0
1613 0 0 0
1615 0 0 0
1616 0 0 0
1617 0 0 0
1618 0 0 0
1619 0 0 0
1693 0 0 0
1411 0 0 0
1085 0 0 0
1696 0 0 0
1697 0 0 0
1698 0 0 0
908 0 0 0
233 0 0 0
234 0 0 0
479 0 0 0
480 0 0 0
485 0 0 0
486 0 0 0
721 0 0 0
722 0 0 0
723 0 0 0
724 0 0 0
725 0 0 0
726 0 0 0
727 0 0 0
728 0 0 0
729 0 0 0
1694 0 0 0
1538 0 0 0
229 0 0 0
907 0 0 0
1065 0 0 0
584 0 0 0
1071 0 0 0
1255 0 0 0
1119 0 0 0
1123 0 0 0
2163 0 0 0
1257 0 0 0
1432 0 0 0
1433 0 0 0
1434 0 0 0
1435 0 0 0
1169 0 0 0
478 0 0 0
1438 0 0 0
1439 0 0 0
1440 0 0 0
1834 0 0 0
1559 0 0 0
1560 0 0 0
1562 0 0 0
1564 0 0 0
1565 0 0 0
1566 0 0 0
1614 0 0 0
1620 0 0 0
902 0 0 0
1537 0 0 0
481 0 0 0
1170 0 0 0
1145 0 0 0
1148 0 0 0
1164 0 0 0
231 0 0 0
1070 0 0 0
2176 0 0 0
1150 0 0 0
1168 0 0 0
2161 0 0 0
1532 0 0 0
963 0 0 0
1004 0 0 0
2146 0 0 0
2148 0 0 0
2166 0 0 0
1408 0 0 0
1421 0 0 0
1005 0 0 0
118 0 0 0
119 0 0 0
120 0 0 0
121 0 0 0
122 0 0 0
123 0 0 0
124 0 0 0
125 0 0 0
126 0 0 0
775 0 0 0
128 0 0 0
1126 0 0 0
780 0 0 0
1278 0 0 0
133 0 0 0
134 0 0 0
576 0 0 0
137 0 0 0
140 0 0 0
129 0 0 0
2222 0 0 0
244 0 0 0
245 0 0 0
246 0 0 0
247 0 0 0
248 0 0 0
249 0 0 0
250 0 0 0
251 0 0 0
766 0 0 0
767 0 0 0
768 0 0 0
769 0 0 0
770 0 0 0
774 0 0 0
776 0 0 0
778 0 0 0
781 0 0 0
2221 0 0 0
572 0 0 0
1133 0 0 0
1482 0 0 0
1384 0 0 0
2152 0 0 0
779 0 0 0
2155 0 0 0
2156 0 0 0
1 0 0 0
942 0 0 0
14 0 0 0
4 0 0 0
5 0 0 0
6 0 0 0
2218 0 0 0
8 0 0 0
568 0 0 0
2220 0 0 0
138 0 0 0
590 0 0 0
143 0 0 0
144 0 0 0
334 0 0 0
335 0 0 0
336 0 0 0
337 0 0 0
338 0 0 0
339 0 0 0
340 0 0 0
341 0 0 0
342 0 0 0
909 0 0 0
588 0 0 0
2154 0 0 0
2219 0 0 0
1096 0 0 0
594 0 0 0
771 0 0 0
772 0 0 0
773 0 0 0
777 0 0 0
783 0 0 0
1131 0 0 0
941 0 0 0
570 0 0 0
1209 0 0 0
1215 0 0 0
1378 0 0 0
1379 0 0 0
1380 0 0 0
2216 0 0 0
135 0 0 0
1383 0 0 0
1385 0 0 0
1386 0 0 0
2157 0 0 0
2217 0 0 0
2223 0 0 0
252 0 0 0
10 0 0 0
1109 0 0 0
2215 0 0 0
1709 0 0 0
782 0 0 0
1116 0 0 0
1477 0 0 0
1478 0 0 0
1479 0 0 0
1483 0 0 0
1484 0 0 0
1485 0 0 0
1953 0 0 0
571 0 0 0
333 0 0 0
1115 0 0 0
1207 0 0 0
1208 0 0 0
1210 0 0 0
1211 0 0 0
1212 0 0 0
1213 0 0 0
1214 0 0 0
1480 0 0 0
1481 0 0 0
1792 0 0 0
1793 0 0 0
1794 0 0 0
1795 0 0 0
1796 0 0 0
1797 0 0 0
1798 0 0 0
1799 0 0 0
1800 0 0 0
1945 0 0 0
940 0 0 0
1947 0 0 0
1948 0 0 0
1949 0 0 0
937 0 0 0
1132 0 0 0
15 0 0 0
1130 0 0 0
21 0 0 0
1913 0 0 0
27 0 0 0
1128 0 0 0
604 0 0 0
442 0 0 0
443 0 0 0
444 0 0 0
445 0 0 0
446 0 0 0
447 0 0 0
448 0 0 0
449 0 0 0
450 0 0 0
829 0 0 0
830 0 0 0
831 0 0 0
833 0 0 0
834 0 0 0
836 0 0 0
837 0 0 0
966 0 0 0
972 0 0 0
987 0 0 0
2211 0 0 0
1108 0 0 0
2112 0 0 0
609 0 0 0
1134 0 0 0
1911 0 0 0
1916 0 0 0
1332 0 0 0
1370 0 0 0
1371 0 0 0
1375 0 0 0
1376 0 0 0
1377 0 0 0
2160 0 0 0
223 0 0 0
1901 0 0 0
1902 0 0 0
1906 0 0 0
1907 0 0 0
1908 0 0 0
2036 0 0 0
2037 0 0 0
2041 0 0 0
2042 0 0 0
2043 0 0 0
2089 0 0 0
2090 0 0 0
2091 0 0 0
2092 0 0 0
2093 0 0 0
2094 0 0 0
2095 0 0 0
2096 0 0 0
2097 0 0 0
876 0 0 0
2158 0 0 0
454 0 0 0
209 0 0 0
11 0 0 0
12 0 0 0
2210 0 0 0
17 0 0 0
222 0 0 0
49 0 0 0
2207 0 0 0
210 0 0 0
214 0 0 0
216 0 0 0
451 0 0 0
452 0 0 0
453 0 0 0
455 0 0 0
456 0 0 0
457 0 0 0
458 0 0 0
459 0 0 0
2159 0 0 0
473 0 0 0
474 0 0 0
476 0 0 0
703 0 0 0
704 0 0 0
705 0 0 0
706 0 0 0
707 0 0 0
708 0 0 0
709 0 0 0
710 0 0 0
711 0 0 0
132 0 0 0
608 0 0 0
131 0 0 0
832 0 0 0
835 0 0 0
874 0 0 0
1910 0 0 0
2206 0 0 0
877 0 0 0
878 0 0 0
879 0 0 0
882 0 0 0
750 0 0 0
938 0 0 0
1909 0 0 0
347 0 0 0
943 0 0 0
944 0 0 0
2213 0 0 0
880 0 0 0
1183 0 0 0
1185 0 0 0
1325 0 0 0
1326 0 0 0
1330 0 0 0
1331 0 0 0
1424 0 0 0
1425 0 0 0
1917 0 0 0
1429 0 0 0
1430 0 0 0
1431 0 0 0
1848 0 0 0
1854 0 0 0
2035 0 0 0
2038 0 0 0
2039 0 0 0
2040 0 0 0
1368 0 0 0
2209 0 0 0
2212 0 0 0
1367 0 0 0
607 0 0 0
881 0 0 0
1915 0 0 0
1366 0 0 0
218 0 0 0
1392 0 0 0
46 0 0 0
883 0 0 0
884 0 0 0
885 0 0 0
888 0 0 0
889 0 0 0
890 0 0 0
891 0 0 0
964 0 0 0
965 0 0 0
967 0 0 0
968 0 0 0
969 0 0 0
970 0 0 0
1914 0 0 0
1111 0 0 0
949 0 0 0
1360 0 0 0
1363 0 0 0
1364 0 0 0
1365 0 0 0
1369 0 0 0
1372 0 0 0
1373 0 0 0
1112 0 0 0
1738 0 0 0
1739 0 0 0
1740 0 0 0
1741 0 0 0
1742 0 0 0
1743 0 0 0
1744 0 0 0
1745 0 0 0
1746 0 0 0
127 0 0 0
16 0 0 0
217 0 0 0
1362 0 0 0
219 0 0 0
130 0 0 0
221 0 0 0
1127 0 0 0
1912 0 0 0
1374 0 0 0
224 0 0 0
1114 0 0 0
2110 0 0 0
797 0 0 0
13 0 0 0
875 0 0 0
2238 0 0 0
801 0 0 0
886 0 0 0
887 0 0 0
971 0 0 0
1129 0 0 0
51 0 0 0
1171 0 0 0
1172 0 0 0
1173 0 0 0
1174 0 0 0
1175 0 0 0
1176 0 0 0
1177 0 0 0
1178 0 0 0
1179 0 0 0
1324 0 0 0
1327 0 0 0
1328 0 0 0
1329 0 0 0
1361 0 0 0
1110 0 0 0
215 0 0 0
350 0 0 0
2107 0 0 0
2153 0 0 0
18 0 0 0
19 0 0 0
20 0 0 0
22 0 0 0
169 0 0 0
1154 0 0 0
404 0 0 0
280 0 0 0
281 0 0 0
283 0 0 0
284 0 0 0
285 0 0 0
286 0 0 0
287 0 0 0
343 0 0 0
344 0 0 0
345 0 0 0
346 0 0 0
3 0 0 0
348 0 0 0
349 0 0 0
402 0 0 0
2214 0 0 0
397 0 0 0
398 0 0 0
399 0 0 0
400 0 0 0
401 0 0 0
2173 0 0 0
403 0 0 0
25 0 0 0
405 0 0 0
631 0 0 0
632 0 0 0
633 0 0 0
634 0 0 0
635 0 0 0
636 0 0 0
637 0 0 0
638 0 0 0
639 0 0 0
1695 0 0 0
1140 0 0 0
1648 0 0 0
1649 0 0 0
1650 0 0 0
1651 0 0 0
1652 0 0 0
1654 0 0 0
1656 0 0 0
1394 0 0 0
359 0 0 0
23 0 0 0
24 0 0 0
358 0 0 0
208 0 0 0
211 0 0 0
212 0 0 0
213 0 0 0
1970 0 0 0
354 0 0 0
360 0 0 0
2169 0 0 0
2167 0 0 0
575 0 0 0
2171 0 0 0
1699 0 0 0
905 0 0 0
2175 0 0 0
26 0 0 0
1701 0 0 0
1253 0 0 0
1254 0 0 0
903 0 0 0
2174 0 0 0
1258 0 0 0
1259 0 0 0
1260 0 0 0
1280 0 0 0
1281 0 0 0
1285 0 0 0
1286 0 0 0
1287 0 0 0
1351 0 0 0
1352 0 0 0
1353 0 0 0
1354 0 0 0
1355 0 0 0
1356 0 0 0
1357 0 0 0
1358 0 0 0
1359 0 0 0
1423 0 0 0
1426 0 0 0
1428 0 0 0
1653 0 0 0
1655 0 0 0
1774 0 0 0
1775 0 0 0
1776 0 0 0
1777 0 0 0
1778 0 0 0
1779 0 0 0
1780 0 0 0
1781 0 0 0
1782 0 0 0
1963 0 0 0
962 0 0 0
1967 0 0 0
1982 0 0 0
1158 0 0 0
1987 0 0 0
1427 0 0 0
2208 0 0 0
163 0 0 0
164 0 0 0
165 0 0 0
166 0 0 0
167 0 0 0
170 0 0 0
171 0 0 0
282 0 0 0
288 0 0 0
1135 0 0 0
1136 0 0 0
1137 0 0 0
1138 0 0 0
1139 0 0 0
1141 0 0 0
1142 0 0 0
1143 0 0 0
2143 0 0 0
2144 0 0 0
2145 0 0 0
1965 0 0 0
2147 0 0 0
50 0 0 0
2149 0 0 0
2150 0 0 0
2151 0 0 0
168 0 0 0
352 0 0 0
353 0 0 0
355 0 0 0
356 0 0 0
357 0 0 0
2 0 0 0
569 0 0 0
2168 0 0 0
573 0 0 0
574 0 0 0
1153 0 0 0
9 0 0 0
1156 0 0 0
1964 0 0 0
1159 0 0 0
1157 0 0 0
1279 0 0 0
1282 0 0 0
1283 0 0 0
1284 0 0 0
1387 0 0 0
1388 0 0 0
1389 0 0 0
1390 0 0 0
1391 0 0 0
1700 0 0 0
1393 0 0 0
1983 0 0 0
1395 0 0 0
1968 0 0 0
2170 0 0 0
2162 0 0 0
2177 0 0 0
961 0 0 0
7 0 0 0
351 0 0 0
361 0 0 0
362 0 0 0
2186 0 0 0
364 0 0 0
365 0 0 0
366 0 0 0
367 0 0 0
368 0 0 0
388 0 0 0
389 0 0 0
390 0 0 0
391 0 0 0
392 0 0 0
393 0 0 0
394 0 0 0
395 0 0 0
396 0 0 0
506 0 0 0
507 0 0 0
1712 0 0 0
511 0 0 0
512 0 0 0
550 0 0 0
551 0 0 0
552 0 0 0
554 0 0 0
556 0 0 0
557 0 0 0
558 0 0 0
1708 0 0 0
921 0 0 0
927 0 0 0
98 0 0 0
1048 0 0 0
1051 0 0 0
1897 0 0 0
2044 0 0 0
2045 0 0 0
2046 0 0 0
2047 0 0 0
2048 0 0 0
2049 0 0 0
2050 0 0 0
2051 0 0 0
810 0 0 0
116 0 0 0
271 0 0 0
272 0 0 0
273 0 0 0
274 0 0 0
275 0 0 0
1713 0 0 0
1716 0 0 0
77 0 0 0
279 0 0 0
523 0 0 0
524 0 0 0
525 0 0 0
526 0 0 0
527 0 0 0
528 0 0 0
529 0 0 0
530 0 0 0
531 0 0 0
1045 0 0 0
1046 0 0 0
31 0 0 0
1050 0 0 0
1052 0 0 0
1336 0 0 0
1684 0 0 0
1685 0 0 0
1686 0 0 0
1687 0 0 0
1688 0 0 0
1691 0 0 0
1692 0 0 0
2179 0 0 0
1714 0 0 0
2183 0 0 0
2184 0 0 0
29 0 0 0
30 0 0 0
1705 0 0 0
35 0 0 0
36 0 0 0
462 0 0 0
2034 0 0 0
468 0 0 0
553 0 0 0
555 0 0 0
613 0 0 0
614 0 0 0
615 0 0 0
616 0 0 0
617 0 0 0
618 0 0 0
619 0 0 0
620 0 0 0
621 0 0 0
1711 0 0 0
857 0 0 0
858 0 0 0
862 0 0 0
2029 0 0 0
864 0 0 0
513 0 0 0
920 0 0 0
2031 0 0 0
926 0 0 0
1340 0 0 0
461 0 0 0
2028 0 0 0
1409 0 0 0
2180 0 0 0
2033 0 0 0
1586 0 0 0
1587 0 0 0
1589 0 0 0
1591 0 0 0
1592 0 0 0
1593 0 0 0
1702 0 0 0
2030 0 0 0
1707 0 0 0
925 0 0 0
1891 0 0 0
1892 0 0 0
1893 0 0 0
1894 0 0 0
1895 0 0 0
1896 0 0 0
1898 0 0 0
1899 0 0 0
2032 0 0 0
109 0 0 0
110 0 0 0
111 0 0 0
112 0 0 0
113 0 0 0
114 0 0 0
115 0 0 0
117 0 0 0
406 0 0 0
407 0 0 0
408 0 0 0
409 0 0 0
410 0 0 0
411 0 0 0
412 0 0 0
413 0 0 0
414 0 0 0
1333 0 0 0
32 0 0 0
1337 0 0 0
1338 0 0 0
1585 0 0 0
1588 0 0 0
1590 0 0 0
1334 0 0 0
1690 0 0 0
466 0 0 0
1715 0 0 0
467 0 0 0
1719 0 0 0
1747 0 0 0
1748 0 0 0
1749 0 0 0
1571 0 0 0
1403 0 0 0
28 0 0 0
1753 0 0 0
1754 0 0 0
1755 0 0 0
2008 0 0 0
2009 0 0 0
2010 0 0 0
2011 0 0 0
2012 0 0 0
2013 0 0 0
2014 0 0 0
2015 0 0 0
2016 0 0 0
2026 0 0 0
2027 0 0 0
34 0 0 0
2182 0 0 0
924 0 0 0
510 0 0 0
919 0 0 0
33 0 0 0
505 0 0 0
859 0 0 0
1718 0 0 0
2185 0 0 0
154 0 0 0
155 0 0 0
156 0 0 0
157 0 0 0
158 0 0 0
159 0 0 0
160 0 0 0
161 0 0 0
162 0 0 0
369 0 0 0
488 0 0 0
489 0 0 0
106 0 0 0
493 0 0 0
853 0 0 0
495 0 0 0
814 0 0 0
2001 0 0 0
1767 0 0 0
649 0 0 0
650 0 0 0
651 0 0 0
652 0 0 0
653 0 0 0
654 0 0 0
655 0 0 0
656 0 0 0
657 0 0 0
838 0 0 0
839 0 0 0
840 0 0 0
841 0 0 0
842 0 0 0
1830 0 0 0
844 0 0 0
845 0 0 0
846 0 0 0
865 0 0 0
866 0 0 0
870 0 0 0
871 0 0 0
872 0 0 0
1665 0 0 0
2003 0 0 0
1507 0 0 0
1509 0 0 0
1534 0 0 0
978 0 0 0
849 0 0 0
2132 0 0 0
1628 0 0 0
2004 0 0 0
1761 0 0 0
2125 0 0 0
2187 0 0 0
820 0 0 0
821 0 0 0
822 0 0 0
824 0 0 0
826 0 0 0
827 0 0 0
828 0 0 0
928 0 0 0
929 0 0 0
930 0 0 0
931 0 0 0
932 0 0 0
933 0 0 0
934 0 0 0
935 0 0 0
936 0 0 0
1504 0 0 0
1505 0 0 0
1506 0 0 0
1510 0 0 0
1511 0 0 0
1512 0 0 0
1657 0 0 0
1660 0 0 0
1766 0 0 0
1662 0 0 0
1028 0 0 0
549 0 0 0
2005 0 0 0
848 0 0 0
1771 0 0 0
1867 0 0 0
952 0 0 0
2181 0 0 0
1772 0 0 0
80 0 0 0
1769 0 0 0
675 0 0 0
1868 0 0 0
107 0 0 0
200 0 0 0
201 0 0 0
205 0 0 0
206 0 0 0
207 0 0 0
2007 0 0 0
1035 0 0 0
1869 0 0 0
2006 0 0 0
2131 0 0 0
2002 0 0 0
868 0 0 0
869 0 0 0
910 0 0 0
911 0 0 0
912 0 0 0
1765 0 0 0
914 0 0 0
915 0 0 0
916 0 0 0
917 0 0 0
918 0 0 0
816 0 0 0
947 0 0 0
855 0 0 0
1335 0 0 0
1773 0 0 0
1027 0 0 0
1031 0 0 0
1763 0 0 0
1034 0 0 0
1729 0 0 0
1730 0 0 0
1731 0 0 0
1732 0 0 0
1733 0 0 0
1999 0 0 0
1735 0 0 0
1736 0 0 0
1756 0 0 0
1757 0 0 0
1758 0 0 0
1759 0 0 0
1760 0 0 0
1762 0 0 0
2126 0 0 0
1764 0 0 0
2071 0 0 0
2072 0 0 0
2073 0 0 0
2074 0 0 0
2075 0 0 0
2076 0 0 0
2077 0 0 0
2078 0 0 0
2079 0 0 0
2116 0 0 0
2117 0 0 0
2118 0 0 0
2119 0 0 0
1752 0 0 0
2113 0 0 0
2122 0 0 0
2123 0 0 0
2124 0 0 0
2127 0 0 0
2133 0 0 0
73 0 0 0
74 0 0 0
2129 0 0 0
76 0 0 0
1751 0 0 0
78 0 0 0
79 0 0 0
101 0 0 0
102 0 0 0
103 0 0 0
108 0 0 0
685 0 0 0
686 0 0 0
687 0 0 0
688 0 0 0
689 0 0 0
690 0 0 0
691 0 0 0
692 0 0 0
693 0 0 0
363 0 0 0
823 0 0 0
825 0 0 0
854 0 0 0
1864 0 0 0
811 0 0 0
851 0 0 0
1689 0 0 0
1339 0 0 0
953 0 0 0
1341 0 0 0
1508 0 0 0
1658 0 0 0
1659 0 0 0
1663 0 0 0
1664 0 0 0
494 0 0 0
1737 0 0 0
1768 0 0 0
2000 0 0 0
873 0 0 0
867 0 0 0
1033 0 0 0
1750 0 0 0
852 0 0 0
1831 0 0 0
847 0 0 0
815 0 0 0
1303 0 0 0
1089 0 0 0
492 0 0 0
622 0 0 0
623 0 0 0
1621 0 0 0
625 0 0 0
626 0 0 0
627 0 0 0
628 0 0 0
629 0 0 0
2120 0 0 0
694 0 0 0
695 0 0 0
696 0 0 0
697 0 0 0
698 0 0 0
699 0 0 0
700 0 0 0
701 0 0 0
1622 0 0 0
892 0 0 0
893 0 0 0
895 0 0 0
896 0 0 0
897 0 0 0
898 0 0 0
899 0 0 0
1149 0 0 0
624 0 0 0
1410 0 0 0
1162 0 0 0
1166 0 0 0
1167 0 0 0
630 0 0 0
1302 0 0 0
1535 0 0 0
1536 0 0 0
1666 0 0 0
1667 0 0 0
1668 0 0 0
1672 0 0 0
1673 0 0 0
597 0 0 0
603 0 0 0
850 0 0 0
1099 0 0 0
1102 0 0 0
1103 0 0 0
1104 0 0 0
1234 0 0 0
1235 0 0 0
1236 0 0 0
1237 0 0 0
1238 0 0 0
1239 0 0 0
1240 0 0 0
1241 0 0 0
1242 0 0 0
1639 0 0 0
1640 0 0 0
1641 0 0 0
1642 0 0 0
1643 0 0 0
1644 0 0 0
1645 0 0 0
1646 0 0 0
1647 0 0 0
1670 0 0 0
1674 0 0 0
94 0 0 0
91 0 0 0
1625 0 0 0
745 0 0 0
1865 0 0 0
1866 0 0 0
1300 0 0 0
42 0 0 0
1030 0 0 0
1871 0 0 0
1872 0 0 0
63 0 0 0
491 0 0 0
92 0 0 0
97 0 0 0
1304 0 0 0
172 0 0 0
173 0 0 0
174 0 0 0
175 0 0 0
176 0 0 0
177 0 0 0
178 0 0 0
179 0 0 0
180 0 0 0
316 0 0 0
317 0 0 0
318 0 0 0
319 0 0 0
320 0 0 0
321 0 0 0
322 0 0 0
323 0 0 0
324 0 0 0
420 0 0 0
739 0 0 0
740 0 0 0
741 0 0 0
742 0 0 0
743 0 0 0
744 0 0 0
746 0 0 0
747 0 0 0
1870 0 0 0
2060 0 0 0
1063 0 0 0
1064 0 0 0
1066 0 0 0
1067 0 0 0
1068 0 0 0
1069 0 0 0
1081 0 0 0
1082 0 0 0
1083 0 0 0
1734 0 0 0
1032 0 0 0
1086 0 0 0
1087 0 0 0
1088 0 0 0
95 0 0 0
900 0 0 0
1165 0 0 0
894 0 0 0
1836 0 0 0
1623 0 0 0
1629 0 0 0
1669 0 0 0
1671 0 0 0
1084 0 0 0
1147 0 0 0
817 0 0 0
37 0 0 0
38 0 0 0
39 0 0 0
40 0 0 0
41 0 0 0
43 0 0 0
44 0 0 0
45 0 0 0
93 0 0 0
2061 0 0 0
99 0 0 0
595 0 0 0
596 0 0 0
598 0 0 0
599 0 0 0
600 0 0 0
601 0 0 0
602 0 0 0
1627 0 0 0
812 0 0 0
813 0 0 0
421 0 0 0
818 0 0 0
819 0 0 0
1770 0 0 0
2121 0 0 0
1405 0 0 0
490 0 0 0
1100 0 0 0
1101 0 0 0
1105 0 0 0
1106 0 0 0
1107 0 0 0
2059 0 0 0
1298 0 0 0
1299 0 0 0
1301 0 0 0
1624 0 0 0
1985 0 0 0
1305 0 0 0
2053 0 0 0
2054 0 0 0
2055 0 0 0
2056 0 0 0
2057 0 0 0
2058 0 0 0
487 0 0 0
1297 0 0 0
1531 0 0 0
1144 0 0 0
702 0 0 0
957 0 0 0
1556 0 0 0
235 0 0 0
238 0 0 0
239 0 0 0
765 0 0 0
802 0 0 0
1727 0 0 0
806 0 0 0
807 0 0 0
809 0 0 0
1018 0 0 0
2134 0 0 0
860 0 0 0
1728 0 0 0
1703 0 0 0
1091 0 0 0
1092 0 0 0
1381 0 0 0
265 0 0 0
805 0 0 0
1097 0 0 0
1098 0 0 0
2135 0 0 0
1468 0 0 0
1469 0 0 0
1470 0 0 0
1471 0 0 0
1472 0 0 0
1473 0 0 0
1474 0 0 0
1475 0 0 0
1476 0 0 0
1495 0 0 0
1498 0 0 0
1499 0 0 0
1951 0 0 0
1527 0 0 0
1528 0 0 0
327 0 0 0
1704 0 0 0
266 0 0 0
1049 0 0 0
1838 0 0 0
1990 0 0 0
1991 0 0 0
1992 0 0 0
1993 0 0 0
1994 0 0 0
1995 0 0 0
1996 0 0 0
1997 0 0 0
1998 0 0 0
236 0 0 0
237 0 0 0
241 0 0 0
242 0 0 0
243 0 0 0
803 0 0 0
804 0 0 0
808 0 0 0
736 0 0 0
1189 0 0 0
1190 0 0 0
1191 0 0 0
1192 0 0 0
1193 0 0 0
1194 0 0 0
1195 0 0 0
1196 0 0 0
1197 0 0 0
1047 0 0 0
1442 0 0 0
1443 0 0 0
2052 0 0 0
1445 0 0 0
863 0 0 0
1447 0 0 0
1448 0 0 0
1449 0 0 0
1021 0 0 0
1841 0 0 0
326 0 0 0
1717 0 0 0
731 0 0 0
1837 0 0 0
856 0 0 0
1842 0 0 0
1843 0 0 0
1844 0 0 0
2136 0 0 0
2137 0 0 0
2142 0 0 0
82 0 0 0
83 0 0 0
84 0 0 0
85 0 0 0
86 0 0 0
87 0 0 0
88 0 0 0
89 0 0 0
90 0 0 0
240 0 0 0
325 0 0 0
1952 0 0 0
328 0 0 0
329 0 0 0
330 0 0 0
2138 0 0 0
332 0 0 0
1496 0 0 0
1497 0 0 0
1501 0 0 0
1502 0 0 0
1503 0 0 0
1522 0 0 0
1523 0 0 0
1524 0 0 0
1525 0 0 0
1526 0 0 0
1529 0 0 0
1530 0 0 0
1720 0 0 0
1723 0 0 0
1724 0 0 0
1725 0 0 0
2141 0 0 0
759 0 0 0
2140 0 0 0
331 0 0 0
737 0 0 0
2139 0 0 0
861 0 0 0
1023 0 0 0
1054 0 0 0
1055 0 0 0
1056 0 0 0
1057 0 0 0
1058 0 0 0
1059 0 0 0
1060 0 0 0
1061 0 0 0
1062 0 0 0
1721 0 0 0
1722 0 0 0
1726 0 0 0
1382 0 0 0
1840 0 0 0
292 0 0 0
1950 0 0 0
262 0 0 0
267 0 0 0
1053 0 0 0
96 0 0 0
1710 0 0 0
1946 0 0 0
2236 0 0 0
1888 0 0 0
950 0 0 0
81 0 0 0
289 0 0 0
290 0 0 0
291 0 0 0
220 0 0 0
294 0 0 0
295 0 0 0
296 0 0 0
2064 0 0 0
470 0 0 0
471 0 0 0
472 0 0 0
475 0 0 0
477 0 0 0
514 0 0 0
515 0 0 0
516 0 0 0
517 0 0 0
518 0 0 0
519 0 0 0
520 0 0 0
521 0 0 0
522 0 0 0
730 0 0 0
605 0 0 0
732 0 0 0
734 0 0 0
2068 0 0 0
738 0 0 0
315 0 0 0
52 0 0 0
1095 0 0 0
2062 0 0 0
610 0 0 0
1037 0 0 0
1038 0 0 0
1043 0 0 0
1044 0 0 0
75 0 0 0
1181 0 0 0
1182 0 0 0
1186 0 0 0
1187 0 0 0
1887 0 0 0
105 0 0 0
1885 0 0 0
1630 0 0 0
1631 0 0 0
1632 0 0 0
1633 0 0 0
1634 0 0 0
1635 0 0 0
1636 0 0 0
1637 0 0 0
1638 0 0 0
1784 0 0 0
1789 0 0 0
2197 0 0 0
2198 0 0 0
2199 0 0 0
2200 0 0 0
2201 0 0 0
2202 0 0 0
2203 0 0 0
2204 0 0 0
2205 0 0 0
2239 0 0 0
1180 0 0 0
293 0 0 0
297 0 0 0
270 0 0 0
310 0 0 0
311 0 0 0
1884 0 0 0
1882 0 0 0
982 0 0 0
983 0 0 0
984 0 0 0
985 0 0 0
986 0 0 0
611 0 0 0
988 0 0 0
989 0 0 0
990 0 0 0
1464 0 0 0
1465 0 0 0
1466 0 0 0
1540 0 0 0
1541 0 0 0
1542 0 0 0
1543 0 0 0
1544 0 0 0
1545 0 0 0
1546 0 0 0
1547 0 0 0
1039 0 0 0
1783 0 0 0
1785 0 0 0
1786 0 0 0
1787 0 0 0
1788 0 0 0
1790 0 0 0
1791 0 0 0
1839 0 0 0
2022 0 0 0
2233 0 0 0
1845 0 0 0
1972 0 0 0
1973 0 0 0
1974 0 0 0
1975 0 0 0
1976 0 0 0
1978 0 0 0
1979 0 0 0
1980 0 0 0
792 0 0 0
2069 0 0 0
2070 0 0 0
66 0 0 0
68 0 0 0
71 0 0 0
72 0 0 0
1042 0 0 0
1022 0 0 0
264 0 0 0
606 0 0 0
973 0 0 0
974 0 0 0
975 0 0 0
976 0 0 0
977 0 0 0
1554 0 0 0
979 0 0 0
980 0 0 0
981 0 0 0
733 0 0 0
1094 0 0 0
1883 0 0 0
1184 0 0 0
1188 0 0 0
1486 0 0 0
1487 0 0 0
1488 0 0 0
1489 0 0 0
1490 0 0 0
1491 0 0 0
1492 0 0 0
1493 0 0 0
1494 0 0 0
2234 0 0 0
1977 0 0 0
2017 0 0 0
2018 0 0 0
2019 0 0 0
2021 0 0 0
2023 0 0 0
2024 0 0 0
2025 0 0 0
2098 0 0 0
2099 0 0 0
1886 0 0 0
2101 0 0 0
951 0 0 0
2103 0 0 0
2104 0 0 0
612 0 0 0
1890 0 0 0
2063 0 0 0
2235 0 0 0
2020 0 0 0
2237 0 0 0
2241 0 0 0
64 0 0 0
65 0 0 0
67 0 0 0
69 0 0 0
70 0 0 0
2065 0 0 0
263 0 0 0
2240 0 0 0
1889 0 0 0
946 0 0 0
268 0 0 0
269 0 0 0
1019 0 0 0
1020 0 0 0
1024 0 0 0
1025 0 0 0
1026 0 0 0
1459 0 0 0
1460 0 0 0
1461 0 0 0
1462 0 0 0
1463 0 0 0
1467 0 0 0
1548 0 0 0
309 0 0 0
1160 0 0 0
307 0 0 0
788 0 0 0
2067 0 0 0
1036 0 0 0
735 0 0 0
843 0 0 0
1040 0 0 0
1029 0 0 0
1093 0 0 0
913 0 0 0
1041 0 0 0
469 0 0 0
100 0 0 0
104 0 0 0
1090 0 0 0
1981 0 0 0
2178 0 0 0
53 0 0 0
54 0 0 0
55 0 0 0
56 0 0 0
57 0 0 0
58 0 0 0
59 0 0 0
60 0 0 0
61 0 0 0
62 0 0 0
1444 0 0 0
1500 0 0 0
145 0 0 0
147 0 0 0
148 0 0 0
149 0 0 0
153 0 0 0
312 0 0 0
415 0 0 0
418 0 0 0
419 0 0 0
757 0 0 0
758 0 0 0
2084 0 0 0
790 0 0 0
1557 0 0 0
762 0 0 0
763 0 0 0
764 0 0 0
2082 0 0 0
1315 0 0 0
1316 0 0 0
1317 0 0 0
1318 0 0 0
1319 0 0 0
1320 0 0 0
1321 0 0 0
1322 0 0 0
1323 0 0 0
1346 0 0 0
1594 0 0 0
1595 0 0 0
1596 0 0 0
1597 0 0 0
1599 0 0 0
1600 0 0 0
1601 0 0 0
1602 0 0 0
1343 0 0 0
1927 0 0 0
1928 0 0 0
1929 0 0 0
1931 0 0 0
1934 0 0 0
1935 0 0 0
2100 0 0 0
2081 0 0 0
786 0 0 0
785 0 0 0
1986 0 0 0
48 0 0 0
308 0 0 0
2083 0 0 0
313 0 0 0
314 0 0 0
416 0 0 0
417 0 0 0
1344 0 0 0
422 0 0 0
423 0 0 0
784 0 0 0
787 0 0 0
1342 0 0 0
789 0 0 0
2085 0 0 0
791 0 0 0
1626 0 0 0
955 0 0 0
956 0 0 0
761 0 0 0
958 0 0 0
959 0 0 0
960 0 0 0
2102 0 0 0
2105 0 0 0
1347 0 0 0
1349 0 0 0
1598 0 0 0
47 0 0 0
2088 0 0 0
1348 0 0 0
1984 0 0 0
1345 0 0 0
2066 0 0 0
1971 0 0 0
760 0 0 0
146 0 0 0
150 0 0 0
151 0 0 0
152 0 0 0
2087 0 0 0
2080 0 0 0
1155 0 0 0
1161 0 0 0
1350 0 0 0
1549 0 0 0
1550 0 0 0
1551 0 0 0
1552 0 0 0
1553 0 0 0
1446 0 0 0
1555 0 0 0
1603 0 0 0
1604 0 0 0
1605 0 0 0
1606 0 0 0
1607 0 0 0
1608 0 0 0
1609 0 0 0
1610 0 0 0
1611 0 0 0
1930 0 0 0
1932 0 0 0
1933 0 0 0
1969 0 0 0
2106 0 0 0
2086 0 0 0
2172 0 0 0
1966 0 0 0
1441 0 0 0

Bonds

1 2 1216 1217
2 1 1216 1219
3 1 1216 1220
4 1 1216 1221
5 2 1567 1568
6 1 1567 1570
7 1 1567 1571
8 1 1567 1572
9 5 1568 1569
10 3 1568 1573
11 3 1568 1574
12 2 1675 1676
13 1 1675 1678
14 1 1675 1679
15 1 1675 1680
16 5 1676 1677
17 3 1676 1681
18 3 1676 1682
19 4 1677 1683
20 5 1820 1821
21 3 1820 1825
22 3 1820 1826
23 4 1821 1827
24 4 1938 1944
25 2 2224 2225
26 1 2224 2227
27 1 2224 2228
28 1 2224 2229
29 5 2225 2226
30 3 2225 2230
31 3 2225 2231
32 4 2226 2232
33 4 534 540
34 2 1009 1010
35 1 1009 1012
36 1 1009 1013
37 1 1009 1014
38 5 1010 1011
39 3 1010 1015
40 3 1010 1016
41 4 1011 1017
42 5 1217 1218
43 3 1217 1222
44 3 1217 1223
45 4 1218 1224
46 2 1288 1289
47 1 1288 1291
48 1 1288 1292
49 1 1288 1293
50 5 1289 1290
51 3 1289 1294
52 3 1289 1295
53 4 1290 1296
54 2 1396 1397
55 1 1396 1399
56 1 1396 1400
57 1 1396 1401
58 5 1397 1398
59 3 1397 1402
60 3 1397 1403
61 2 1450 1451
62 1 1450 1453
63 1 1450 1454
64 1 1450 1455
65 5 1451 1452
66 3 1451 1456
67 3 1451 1457
68 4 1452 1458
69 2 1819 1820
70 1 1819 1822
71 1 1819 1823
72 1 1819 1824
73 2 181 182
74 1 181 184
75 1 181 185
76 1 181 186
77 5 182 183
78 3 182 187
79 3 182 188
80 4 183 189
81 5 1271 1272
82 3 1271 1276
83 3 1271 1277
84 4 1398 1404
85 2 1270 1271
86 1 1270 1273
87 1 1270 1274
88 1 1270 1275
89 2 1000 1001
90 1 1000 1003
91 1 1000 1004
92 1 1000 1005
93 5 1001 1002
94 3 1001 1006
95 3 1001 1007
96 4 1002 1008
97 2 586 587
98 1 586 589
99 1 586 590
100 1 586 591
101 2 1306 1307
102 1 1306 1309
103 1 1306 1310
104 1 1306 1311
105 5 1307 1308
106 3 1307 1312
107 3 1307 1313
108 4 1308 1314
109 4 1569 1575
110 5 2243 2244
111 3 2243 2248
112 3 2243 2249
113 2 433 434
114 1 433 436
115 1 433 437
116 1 433 438
117 5 434 435
118 3 434 439
119 3 434 440
120 4 435 441
121 2 460 461
122 1 460 463
123 1 460 464
124 1 460 465
125 2 532 533
126 1 532 535
127 1 532 536
128 1 532 537
129 5 533 534
130 3 533 538
131 3 533 539
132 2 136 137
133 1 136 139
134 1 136 140
135 1 136 141
136 2 2242 2243
137 1 2242 2245
138 1 2242 2246
139 1 2242 2247
140 2 1072 1073
141 1 1072 1075
142 1 1072 1076
143 1 1072 1077
144 5 1073 1074
145 3 1073 1078
146 3 1073 1079
147 4 1074 1080
148 5 1406 1407
149 3 1406 1411
150 3 1406 1412
151 4 1407 1413
152 2 1954 1955
153 1 1954 1957
154 1 1954 1958
155 1 1954 1959
156 4 1272 1278
157 5 1955 1956
158 3 1955 1960
159 3 1955 1961
160 4 2244 2250
161 5 587 588
162 3 587 592
163 3 587 593
164 5 1226 1227
165 3 1226 1231
166 3 1226 1232
167 2 190 191
168 1 190 193
169 1 190 194
170 1 190 195
171 5 191 192
172 3 191 196
173 3 191 197
174 2 298 299
175 1 298 301
176 1 298 302
177 1 298 303
178 2 1513 1514
179 1 1513 1516
180 1 1513 1517
181 1 1513 1518
182 5 1514 1515
183 3 1514 1519
184 3 1514 1520
185 4 1515 1521
186 2 1918 1919
187 1 1918 1921
188 1 1918 1922
189 1 1918 1923
190 5 1919 1920
191 3 1919 1924
192 3 1919 1925
193 4 1920 1926
194 5 1937 1938
195 3 1937 1942
196 3 1937 1943
197 4 1812 1818
198 4 192 198
199 5 299 300
200 3 299 304
201 3 299 305
202 2 370 371
203 1 370 373
204 1 370 374
205 1 370 375
206 5 371 372
207 3 371 376
208 3 371 377
209 4 372 378
210 2 640 641
211 1 640 643
212 1 640 644
213 1 640 645
214 5 641 642
215 3 641 646
216 3 641 647
217 4 642 648
218 2 667 668
219 1 667 670
220 1 667 671
221 1 667 672
222 5 668 669
223 3 668 673
224 3 668 674
225 2 676 677
226 1 676 679
227 1 676 680
228 1 676 681
229 5 677 678
230 3 677 682
231 3 677 683
232 4 678 684
233 4 1533 1539
234 2 1576 1577
235 1 1576 1579
236 1 1576 1580
237 1 1576 1581
238 5 1577 1578
239 3 1577 1582
240 3 1577 1583
241 4 1578 1584
242 2 541 542
243 1 541 544
244 1 541 545
245 1 541 546
246 2 424 425
247 1 424 427
248 1 424 428
249 1 424 429
250 5 425 426
251 3 425 430
252 3 425 431
253 4 426 432
254 4 1875 1881
255 4 543 549
256 2 658 659
257 1 658 661
258 1 658 662
259 1 658 663
260 5 659 660
261 3 659 664
262 3 659 665
263 4 660 666
264 2 1198 1199
265 1 1198 1201
266 1 1198 1202
267 1 1198 1203
268 5 1199 1200
269 3 1199 1204
270 3 1199 1205
271 4 1227 1233
272 2 496 497
273 1 496 499
274 1 496 500
275 1 496 501
276 4 1200 1206
277 5 2108 2109
278 3 2108 2113
279 3 2108 2114
280 4 2109 2115
281 5 542 543
282 3 542 547
283 3 542 548
284 2 1801 1802
285 1 1801 1804
286 1 1801 1805
287 1 1801 1806
288 5 1802 1803
289 3 1802 1807
290 3 1802 1808
291 4 1803 1809
292 2 1900 1901
293 1 1900 1903
294 1 1900 1904
295 1 1900 1905
296 2 199 200
297 1 199 202
298 1 199 203
299 1 199 204
300 5 794 795
301 3 794 799
302 3 794 800
303 4 948 954
304 4 498 504
305 4 669 675
306 2 748 749
307 1 748 751
308 1 748 752
309 1 748 753
310 5 749 750
311 3 749 754
312 3 749 755
313 4 939 945
314 2 991 992
315 1 991 994
316 1 991 995
317 1 991 996
318 5 992 993
319 3 992 997
320 3 992 998
321 4 993 999
322 2 1810 1811
323 1 1810 1813
324 1 1810 1814
325 1 1810 1815
326 5 1811 1812
327 3 1811 1816
328 3 1811 1817
329 2 1828 1829
330 1 1828 1831
331 1 1828 1832
332 1 1828 1833
333 5 1829 1830
334 3 1829 1834
335 3 1829 1835
336 5 1847 1848
337 3 1847 1852
338 3 1847 1853
339 2 1936 1937
340 1 1936 1939
341 1 1936 1940
342 1 1936 1941
343 2 1846 1847
344 1 1846 1849
345 1 1846 1850
346 1 1846 1851
347 2 1873 1874
348 1 1873 1876
349 1 1873 1877
350 1 1873 1878
351 5 497 498
352 3 497 502
353 3 497 503
354 4 1956 1962
355 5 1874 1875
356 3 1874 1879
357 3 1874 1880
358 4 2190 2196
359 2 2188 2189
360 1 2188 2191
361 1 2188 2192
362 1 2188 2193
363 5 2189 2190
364 3 2189 2194
365 3 2189 2195
366 2 793 794
367 1 793 796
368 1 793 797
369 1 793 798
370 4 795 801
371 2 1225 1226
372 1 1225 1228
373 1 1225 1229
374 1 1225 1230
375 4 300 306
376 2 1252 1253
377 1 1252 1255
378 1 1252 1256
379 1 1252 1257
380 4 561 567
381 2 901 902
382 1 901 904
383 1 901 905
384 1 901 906
385 2 577 578
386 1 577 580
387 1 577 581
388 1 577 582
389 5 578 579
390 3 578 583
391 3 578 584
392 2 712 713
393 1 712 715
394 1 712 716
395 1 712 717
396 5 713 714
397 3 713 718
398 3 713 719
399 4 714 720
400 2 1243 1244
401 1 1243 1246
402 1 1243 1247
403 1 1243 1248
404 5 1244 1245
405 3 1244 1249
406 3 1244 1250
407 4 1245 1251
408 2 1414 1415
409 1 1414 1417
410 1 1414 1418
411 1 1414 1419
412 4 1416 1422
413 2 379 380
414 1 379 382
415 1 379 383
416 1 379 384
417 5 380 381
418 3 380 385
419 3 380 386
420 4 381 387
421 2 559 560
422 1 559 562
423 1 559 563
424 1 559 564
425 5 560 561
426 3 560 565
427 3 560 566
428 4 579 585
429 2 1117 1118
430 1 1117 1120
431 1 1117 1121
432 1 1117 1122
433 5 1118 1119
434 3 1118 1123
435 3 1118 1124
436 4 1146 1152
437 2 1558 1559
438 1 1558 1561
439 1 1558 1562
440 1 1558 1563
441 2 1855 1856
442 1 1855 1858
443 1 1855 1859
444 1 1855 1860
445 5 1856 1857
446 3 1856 1861
447 3 1856 1862
448 4 1857 1863
449 5 227 228
450 3 227 232
451 3 227 233
452 4 228 234
453 5 1415 1416
454 3 1415 1420
455 3 1415 1421
456 2 253 254
457 1 253 256
458 1 253 257
459 1 253 258
460 5 254 255
461 3 254 259
462 3 254 260
463 4 255 261
464 5 1163 1164
465 3 1163 1168
466 3 1163 1169
467 2 226 227
468 1 226 229
469 1 226 230
470 1 226 231
471 2 1261 1262
472 1 1261 1264
473 1 1261 1265
474 1 1261 1266
475 5 1262 1263
476 3 1262 1267
477 3 1262 1268
478 4 1263 1269
479 2 1612 1613
480 1 1612 1615
481 1 1612 1616
482 1 1612 1617
483 5 1613 1614
484 3 1613 1618
485 3 1613 1619
486 2 1693 1694
487 1 1693 1696
488 1 1693 1697
489 1 1693 1698
490 5 479 480
491 3 479 484
492 3 479 485
493 4 480 486
494 2 721 722
495 1 721 724
496 1 721 725
497 1 721 726
498 5 722 723
499 3 722 727
500 3 722 728
501 4 723 729
502 5 1694 1695
503 3 1694 1699
504 3 1694 1700
505 4 1065 1071
506 4 1119 1125
507 4 2163 2169
508 2 1432 1433
509 1 1432 1435
510 1 1432 1436
511 1 1432 1437
512 5 1433 1434
513 3 1433 1438
514 3 1433 1439
515 4 1434 1440
516 2 478 479
517 1 478 481
518 1 478 482
519 1 478 483
520 5 1559 1560
521 3 1559 1564
522 3 1559 1565
523 4 1560 1566
524 4 1614 1620
525 5 902 903
526 3 902 907
527 3 902 908
528 5 1145 1146
529 3 1145 1150
530 3 1145 1151
531 4 1164 1170
532 2 2161 2162
533 1 2161 2164
534 1 2161 2165
535 1 2161 2166
536 5 1532 1533
537 3 1532 1537
538 3 1532 1538
539 2 118 119
540 1 118 121
541 1 118 122
542 1 118 123
543 5 119 120
544 3 119 124
545 3 119 125
546 4 120 126
547 2 775 776
548 1 775 778
549 1 775 779
550 1 775 780
551 5 128 129
552 3 128 133
553 3 128 134
554 2 1126 1127
555 1 1126 1129
556 1 1126 1130
557 1 1126 1131
558 5 137 138
559 3 137 142
560 3 137 143
561 4 129 135
562 2 244 245
563 1 244 247
564 1 244 248
565 1 244 249
566 5 245 246
567 3 245 250
568 3 245 251
569 4 246 252
570 2 766 767
571 1 766 769
572 1 766 770
573 1 766 771
574 5 767 768
575 3 767 772
576 3 767 773
577 4 768 774
578 5 776 777
579 3 776 781
580 3 776 782
581 2 2152 2153
582 1 2152 2155
583 1 2152 2156
584 1 2152 2157
585 2 1 2
586 1 1 4
587 1 1 5
588 1 1 6
589 2 568 569
590 1 568 571
591 1 568 572
592 1 568 573
593 4 138 144
594 2 334 335
595 1 334 337
596 1 334 338
597 1 334 339
598 5 335 336
599 3 335 340
600 3 335 341
601 4 336 342
602 4 588 594
603 4 2154 2160
604 4 777 783
605 4 570 576
606 4 1209 1215
607 2 1378 1379
608 1 1378 1381
609 1 1378 1382
610 1 1378 1383
611 5 1379 1380
612 3 1379 1384
613 3 1379 1385
614 4 1380 1386
615 5 2216 2217
616 3 2216 2221
617 3 2216 2222
618 4 2217 2223
619 2 10 11
620 1 10 13
621 1 10 14
622 1 10 15
623 5 1109 1110
624 3 1109 1114
625 3 1109 1115
626 2 2215 2216
627 1 2215 2218
628 1 2215 2219
629 1 2215 2220
630 2 1477 1478
631 1 1477 1480
632 1 1477 1481
633 1 1477 1482
634 5 1478 1479
635 3 1478 1483
636 3 1478 1484
637 4 1479 1485
638 2 1207 1208
639 1 1207 1210
640 1 1207 1211
641 1 1207 1212
642 5 1208 1209
643 3 1208 1213
644 3 1208 1214
645 2 1792 1793
646 1 1792 1795
647 1 1792 1796
648 1 1792 1797
649 5 1793 1794
650 3 1793 1798
651 3 1793 1799
652 4 1794 1800
653 2 1945 1946
654 1 1945 1948
655 1 1945 1949
656 1 1945 1950
657 4 1947 1953
658 2 937 938
659 1 937 940
660 1 937 941
661 1 937 942
662 4 21 27
663 4 1128 1134
664 2 604 605
665 1 604 607
666 1 604 608
667 1 604 609
668 2 442 443
669 1 442 445
670 1 442 446
671 1 442 447
672 5 443 444
673 3 443 448
674 3 443 449
675 4 444 450
676 2 829 830
677 1 829 832
678 1 829 833
679 1 829 834
680 5 830 831
681 3 830 835
682 3 830 836
683 4 831 837
684 4 966 972
685 2 1108 1109
686 1 1108 1111
687 1 1108 1112
688 1 1108 1113
689 4 1911 1917
690 5 1370 1371
691 3 1370 1375
692 3 1370 1376
693 4 1371 1377
694 5 1901 1902
695 3 1901 1906
696 3 1901 1907
697 4 1902 1908
698 5 2036 2037
699 3 2036 2041
700 3 2036 2042
701 4 2037 2043
702 2 2089 2090
703 1 2089 2092
704 1 2089 2093
705 1 2089 2094
706 5 2090 2091
707 3 2090 2095
708 3 2090 2096
709 4 2091 2097
710 4 876 882
711 5 209 210
712 3 209 214
713 3 209 215
714 5 11 12
715 3 11 16
716 3 11 17
717 4 12 18
718 5 2207 2208
719 3 2207 2212
720 3 2207 2213
721 4 210 216
722 2 451 452
723 1 451 454
724 1 451 455
725 1 451 456
726 5 452 453
727 3 452 457
728 3 452 458
729 4 453 459
730 2 703 704
731 1 703 706
732 1 703 707
733 1 703 708
734 5 704 705
735 3 704 709
736 3 704 710
737 4 705 711
738 2 874 875
739 1 874 877
740 1 874 878
741 1 874 879
742 5 1910 1911
743 3 1910 1915
744 3 1910 1916
745 2 2206 2207
746 1 2206 2209
747 1 2206 2210
748 1 2206 2211
749 4 750 756
750 5 938 939
751 3 938 943
752 3 938 944
753 2 1909 1910
754 1 1909 1912
755 1 1909 1913
756 1 1909 1914
757 5 1325 1326
758 3 1325 1330
759 3 1325 1331
760 4 1326 1332
761 5 1424 1425
762 3 1424 1429
763 3 1424 1430
764 4 1425 1431
765 4 1848 1854
766 2 2035 2036
767 1 2035 2038
768 1 2035 2039
769 1 2035 2040
770 5 218 219
771 3 218 223
772 3 218 224
773 2 46 47
774 1 46 49
775 1 46 50
776 1 46 51
777 2 883 884
778 1 883 886
779 1 883 887
780 1 883 888
781 5 884 885
782 3 884 889
783 3 884 890
784 4 885 891
785 2 964 965
786 1 964 967
787 1 964 968
788 1 964 969
789 5 965 966
790 3 965 970
791 3 965 971
792 2 1360 1361
793 1 1360 1363
794 1 1360 1364
795 1 1360 1365
796 2 1369 1370
797 1 1369 1372
798 1 1369 1373
799 1 1369 1374
800 2 1738 1739
801 1 1738 1741
802 1 1738 1742
803 1 1738 1743
804 5 1739 1740
805 3 1739 1744
806 3 1739 1745
807 4 1740 1746
808 2 127 128
809 1 127 130
810 1 127 131
811 1 127 132
812 2 217 218
813 1 217 220
814 1 217 221
815 1 217 222
816 4 1362 1368
817 4 219 225
818 5 1127 1128
819 3 1127 1132
820 3 1127 1133
821 5 875 876
822 3 875 880
823 3 875 881
824 2 1171 1172
825 1 1171 1174
826 1 1171 1175
827 1 1171 1176
828 5 1172 1173
829 3 1172 1177
830 3 1172 1178
831 4 1173 1179
832 2 1324 1325
833 1 1324 1327
834 1 1324 1328
835 1 1324 1329
836 5 1361 1362
837 3 1361 1366
838 3 1361 1367
839 4 1110 1116
840 2 2107 2108
841 1 2107 2110
842 1 2107 2111
843 1 2107 2112
844 5 2153 2154
845 3 2153 2158
846 3 2153 2159
847 2 19 20
848 1 19 22
849 1 19 23
850 1 19 24
851 5 20 21
852 3 20 25
853 3 20 26
854 5 1154 1155
855 3 1154 1159
856 3 1154 1160
857 2 280 281
858 1 280 283
859 1 280 284
860 1 280 285
861 5 281 282
862 3 281 286
863 3 281 287
864 2 343 344
865 1 343 346
866 1 343 347
867 1 343 348
868 5 344 345
869 3 344 349
870 3 344 350
871 4 345 351
872 4 3 9
873 2 397 398
874 1 397 400
875 1 397 401
876 1 397 402
877 5 398 399
878 3 398 403
879 3 398 404
880 4 399 405
881 2 631 632
882 1 631 634
883 1 631 635
884 1 631 636
885 5 632 633
886 3 632 637
887 3 632 638
888 4 633 639
889 4 1695 1701
890 2 1648 1649
891 1 1648 1651
892 1 1648 1652
893 1 1648 1653
894 5 1649 1650
895 3 1649 1654
896 3 1649 1655
897 4 1650 1656
898 2 208 209
899 1 208 211
900 1 208 212
901 1 208 213
902 4 354 360
903 5 2171 2172
904 3 2171 2176
905 3 2171 2177
906 5 1253 1254
907 3 1253 1258
908 3 1253 1259
909 4 1254 1260
910 4 903 909
911 5 1280 1281
912 3 1280 1285
913 3 1280 1286
914 4 1281 1287
915 2 1351 1352
916 1 1351 1354
917 1 1351 1355
918 1 1351 1356
919 5 1352 1353
920 3 1352 1357
921 3 1352 1358
922 4 1353 1359
923 2 1423 1424
924 1 1423 1426
925 1 1423 1427
926 1 1423 1428
927 2 1774 1775
928 1 1774 1777
929 1 1774 1778
930 1 1774 1779
931 5 1775 1776
932 3 1775 1780
933 3 1775 1781
934 4 1776 1782
935 2 1963 1964
936 1 1963 1966
937 1 1963 1967
938 1 1963 1968
939 5 1982 1983
940 3 1982 1987
941 3 1982 1988
942 4 2208 2214
943 2 163 164
944 1 163 166
945 1 163 167
946 1 163 168
947 5 164 165
948 3 164 169
949 3 164 170
950 4 165 171
951 4 282 288
952 2 1135 1136
953 1 1135 1138
954 1 1135 1139
955 1 1135 1140
956 5 1136 1137
957 3 1136 1141
958 3 1136 1142
959 4 1137 1143
960 2 2143 2144
961 1 2143 2146
962 1 2143 2147
963 1 2143 2148
964 5 2144 2145
965 3 2144 2149
966 3 2144 2150
967 4 2145 2151
968 4 1965 1971
969 2 352 353
970 1 352 355
971 1 352 356
972 1 352 357
973 5 353 354
974 3 353 358
975 3 353 359
976 5 2 3
977 3 2 7
978 3 2 8
979 5 569 570
980 3 569 574
981 3 569 575
982 2 1153 1154
983 1 1153 1156
984 1 1153 1157
985 1 1153 1158
986 5 1964 1965
987 3 1964 1969
988 3 1964 1970
989 2 1279 1280
990 1 1279 1282
991 1 1279 1283
992 1 1279 1284
993 2 1387 1388
994 1 1387 1390
995 1 1387 1391
996 1 1387 1392
997 5 1388 1389
998 3 1388 1393
999 3 1388 1394
1000 4 1389 1395
1001 4 1983 1989
1002 2 2170 2171
1003 1 2170 2173
1004 1 2170 2174
1005 1 2170 2175
1006 5 2162 2163
1007 3 2162 2167
1008 3 2162 2168
1009 2 361 362
1010 1 361 364
1011 1 361 365
1012 1 361 366
1013 5 362 363
1014 3 362 367
1015 3 362 368
1016 2 388 389
1017 1 388 391
1018 1 388 392
1019 1 388 393
1020 5 389 390
1021 3 389 394
1022 3 389 395
1023 4 390 396
1024 5 506 507
1025 3 506 511
1026 3 506 512
1027 4 507 513
1028 5 1712 1713
1029 3 1712 1717
1030 3 1712 1718
1031 2 550 551
1032 1 550 553
1033 1 550 554
1034 1 550 555
1035 5 551 552
1036 3 551 556
1037 3 551 557
1038 4 552 558
1039 4 921 927
1040 2 2044 2045
1041 1 2044 2047
1042 1 2044 2048
1043 1 2044 2049
1044 5 2045 2046
1045 3 2045 2050
1046 3 2045 2051
1047 4 2046 2052
1048 2 271 272
1049 1 271 274
1050 1 271 275
1051 1 271 276
1052 5 272 273
1053 3 272 277
1054 3 272 278
1055 4 273 279
1056 4 1713 1719
1057 2 523 524
1058 1 523 526
1059 1 523 527
1060 1 523 528
1061 5 524 525
1062 3 524 529
1063 3 524 530
1064 4 525 531
1065 2 1045 1046
1066 1 1045 1048
1067 1 1045 1049
1068 1 1045 1050
1069 5 1046 1047
1070 3 1046 1051
1071 3 1046 1052
1072 2 1684 1685
1073 1 1684 1687
1074 1 1684 1688
1075 1 1684 1689
1076 5 1685 1686
1077 3 1685 1690
1078 3 1685 1691
1079 4 1686 1692
1080 2 2179 2180
1081 1 2179 2182
1082 1 2179 2183
1083 1 2179 2184
1084 5 29 30
1085 3 29 34
1086 3 29 35
1087 4 30 36
1088 4 462 468
1089 2 613 614
1090 1 613 616
1091 1 613 617
1092 1 613 618
1093 5 614 615
1094 3 614 619
1095 3 614 620
1096 4 615 621
1097 2 1711 1712
1098 1 1711 1714
1099 1 1711 1715
1100 1 1711 1716
1101 5 857 858
1102 3 857 862
1103 3 857 863
1104 4 858 864
1105 5 920 921
1106 3 920 925
1107 3 920 926
1108 5 461 462
1109 3 461 466
1110 3 461 467
1111 4 2028 2034
1112 5 2180 2181
1113 3 2180 2185
1114 3 2180 2186
1115 5 1586 1587
1116 3 1586 1591
1117 3 1586 1592
1118 4 1587 1593
1119 2 1702 1703
1120 1 1702 1705
1121 1 1702 1706
1122 1 1702 1707
1123 2 1891 1892
1124 1 1891 1894
1125 1 1891 1895
1126 1 1891 1896
1127 5 1892 1893
1128 3 1892 1897
1129 3 1892 1898
1130 4 1893 1899
1131 2 109 110
1132 1 109 112
1133 1 109 113
1134 1 109 114
1135 5 110 111
1136 3 110 115
1137 3 110 116
1138 4 111 117
1139 2 406 407
1140 1 406 409
1141 1 406 410
1142 1 406 411
1143 5 407 408
1144 3 407 412
1145 3 407 413
1146 4 408 414
1147 2 1333 1334
1148 1 1333 1336
1149 1 1333 1337
1150 1 1333 1338
1151 2 1585 1586
1152 1 1585 1588
1153 1 1585 1589
1154 1 1585 1590
1155 5 1334 1335
1156 3 1334 1339
1157 3 1334 1340
1158 2 1747 1748
1159 1 1747 1750
1160 1 1747 1751
1161 1 1747 1752
1162 5 1748 1749
1163 3 1748 1753
1164 3 1748 1754
1165 4 1749 1755
1166 2 28 29
1167 1 28 31
1168 1 28 32
1169 1 28 33
1170 2 2008 2009
1171 1 2008 2011
1172 1 2008 2012
1173 1 2008 2013
1174 5 2009 2010
1175 3 2009 2014
1176 3 2009 2015
1177 4 2010 2016
1178 2 2026 2027
1179 1 2026 2029
1180 1 2026 2030
1181 1 2026 2031
1182 5 2027 2028
1183 3 2027 2032
1184 3 2027 2033
1185 2 919 920
1186 1 919 922
1187 1 919 923
1188 1 919 924
1189 2 505 506
1190 1 505 508
1191 1 505 509
1192 1 505 510
1193 2 154 155
1194 1 154 157
1195 1 154 158
1196 1 154 159
1197 5 155 156
1198 3 155 160
1199 3 155 161
1200 4 156 162
1201 5 488 489
1202 3 488 493
1203 3 488 494
1204 4 489 495
1205 4 2001 2007
1206 4 1767 1773
1207 2 649 650
1208 1 649 652
1209 1 649 653
1210 1 649 654
1211 5 650 651
1212 3 650 655
1213 3 650 656
1214 4 651 657
1215 2 838 839
1216 1 838 841
1217 1 838 842
1218 1 838 843
1219 5 839 840
1220 3 839 844
1221 3 839 845
1222 4 840 846
1223 4 1830 1836
1224 2 865 866
1225 1 865 868
1226 1 865 869
1227 1 865 870
1228 5 866 867
1229 3 866 871
1230 3 866 872
1231 4 849 855
1232 2 2125 2126
1233 1 2125 2128
1234 1 2125 2129
1235 1 2125 2130
1236 2 820 821
1237 1 820 823
1238 1 820 824
1239 1 820 825
1240 5 821 822
1241 3 821 826
1242 3 821 827
1243 4 822 828
1244 2 928 929
1245 1 928 931
1246 1 928 932
1247 1 928 933
1248 5 929 930
1249 3 929 934
1250 3 929 935
1251 4 930 936
1252 2 1504 1505
1253 1 1504 1507
1254 1 1504 1508
1255 1 1504 1509
1256 5 1505 1506
1257 3 1505 1510
1258 3 1505 1511
1259 4 1506 1512
1260 2 1657 1658
1261 1 1657 1660
1262 1 1657 1661
1263 1 1657 1662
1264 5 1766 1767
1265 3 1766 1771
1266 3 1766 1772
1267 5 1028 1029
1268 3 1028 1033
1269 3 1028 1034
1270 5 848 849
1271 3 848 853
1272 3 848 854
1273 4 2181 2187
1274 5 200 201
1275 3 200 205
1276 3 200 206
1277 4 201 207
1278 2 910 911
1279 1 910 913
1280 1 910 914
1281 1 910 915
1282 5 911 912
1283 3 911 916
1284 3 911 917
1285 4 912 918
1286 2 1765 1766
1287 1 1765 1768
1288 1 1765 1769
1289 1 1765 1770
1290 5 947 948
1291 3 947 952
1292 3 947 953
1293 4 1335 1341
1294 2 1027 1028
1295 1 1027 1030
1296 1 1027 1031
1297 1 1027 1032
1298 2 1729 1730
1299 1 1729 1732
1300 1 1729 1733
1301 1 1729 1734
1302 5 1730 1731
1303 3 1730 1735
1304 3 1730 1736
1305 4 1731 1737
1306 2 1999 2000
1307 1 1999 2002
1308 1 1999 2003
1309 1 1999 2004
1310 2 1756 1757
1311 1 1756 1759
1312 1 1756 1760
1313 1 1756 1761
1314 5 1757 1758
1315 3 1757 1762
1316 3 1757 1763
1317 4 1758 1764
1318 5 2126 2127
1319 3 2126 2131
1320 3 2126 2132
1321 2 2071 2072
1322 1 2071 2074
1323 1 2071 2075
1324 1 2071 2076
1325 5 2072 2073
1326 3 2072 2077
1327 3 2072 2078
1328 4 2073 2079
1329 2 2116 2117
1330 1 2116 2119
1331 1 2116 2120
1332 1 2116 2121
1333 5 2117 2118
1334 3 2117 2122
1335 3 2117 2123
1336 4 2118 2124
1337 4 2127 2133
1338 2 73 74
1339 1 73 76
1340 1 73 77
1341 1 73 78
1342 5 74 75
1343 3 74 79
1344 3 74 80
1345 5 101 102
1346 3 101 106
1347 3 101 107
1348 4 102 108
1349 2 685 686
1350 1 685 688
1351 1 685 689
1352 1 685 690
1353 5 686 687
1354 3 686 691
1355 3 686 692
1356 4 687 693
1357 4 363 369
1358 2 1864 1865
1359 1 1864 1867
1360 1 1864 1868
1361 1 1864 1869
1362 2 811 812
1363 1 811 814
1364 1 811 815
1365 1 811 816
1366 5 1658 1659
1367 3 1658 1663
1368 3 1658 1664
1369 4 1659 1665
1370 5 2000 2001
1371 3 2000 2005
1372 3 2000 2006
1373 4 867 873
1374 2 847 848
1375 1 847 850
1376 1 847 851
1377 1 847 852
1378 2 622 623
1379 1 622 625
1380 1 622 626
1381 1 622 627
1382 5 623 624
1383 3 623 628
1384 3 623 629
1385 2 1621 1622
1386 1 1621 1624
1387 1 1621 1625
1388 1 1621 1626
1389 2 694 695
1390 1 694 697
1391 1 694 698
1392 1 694 699
1393 5 695 696
1394 3 695 700
1395 3 695 701
1396 4 696 702
1397 5 1622 1623
1398 3 1622 1627
1399 3 1622 1628
1400 2 892 893
1401 1 892 895
1402 1 892 896
1403 1 892 897
1404 5 893 894
1405 3 893 898
1406 3 893 899
1407 4 624 630
1408 2 1162 1163
1409 1 1162 1165
1410 1 1162 1166
1411 1 1162 1167
1412 2 1666 1667
1413 1 1666 1669
1414 1 1666 1670
1415 1 1666 1671
1416 5 1667 1668
1417 3 1667 1672
1418 3 1667 1673
1419 4 1668 1674
1420 4 597 603
1421 2 1099 1100
1422 1 1099 1102
1423 1 1099 1103
1424 1 1099 1104
1425 2 1234 1235
1426 1 1234 1237
1427 1 1234 1238
1428 1 1234 1239
1429 5 1235 1236
1430 3 1235 1240
1431 3 1235 1241
1432 4 1236 1242
1433 2 1639 1640
1434 1 1639 1642
1435 1 1639 1643
1436 1 1639 1644
1437 5 1640 1641
1438 3 1640 1645
1439 3 1640 1646
1440 4 1641 1647
1441 2 91 92
1442 1 91 94
1443 1 91 95
1444 1 91 96
1445 5 1865 1866
1446 3 1865 1870
1447 3 1865 1871
1448 4 1866 1872
1449 5 92 93
1450 3 92 97
1451 3 92 98
1452 2 172 173
1453 1 172 175
1454 1 172 176
1455 1 172 177
1456 5 173 174
1457 3 173 178
1458 3 173 179
1459 4 174 180
1460 2 316 317
1461 1 316 319
1462 1 316 320
1463 1 316 321
1464 5 317 318
1465 3 317 322
1466 3 317 323
1467 4 318 324
1468 2 739 740
1469 1 739 742
1470 1 739 743
1471 1 739 744
1472 5 740 741
1473 3 740 745
1474 3 740 746
1475 4 741 747
1476 2 1063 1064
1477 1 1063 1066
1478 1 1063 1067
1479 1 1063 1068
1480 5 1064 1065
1481 3 1064 1069
1482 3 1064 1070
1483 2 1081 1082
1484 1 1081 1084
1485 1 1081 1085
1486 1 1081 1086
1487 5 1082 1083
1488 3 1082 1087
1489 3 1082 1088
1490 4 1083 1089
1491 4 894 900
1492 4 1623 1629
1493 2 37 38
1494 1 37 40
1495 1 37 41
1496 1 37 42
1497 5 38 39
1498 3 38 43
1499 3 38 44
1500 4 39 45
1501 4 93 99
1502 2 595 596
1503 1 595 598
1504 1 595 599
1505 1 595 600
1506 5 596 597
1507 3 596 601
1508 3 596 602
1509 5 812 813
1510 3 812 817
1511 3 812 818
1512 4 813 819
1513 2 1405 1406
1514 1 1405 1408
1515 1 1405 1409
1516 1 1405 1410
1517 5 1100 1101
1518 3 1100 1105
1519 3 1100 1106
1520 4 1101 1107
1521 5 1298 1299
1522 3 1298 1303
1523 3 1298 1304
1524 4 1299 1305
1525 2 2053 2054
1526 1 2053 2056
1527 1 2053 2057
1528 1 2053 2058
1529 5 2054 2055
1530 3 2054 2059
1531 3 2054 2060
1532 4 2055 2061
1533 2 487 488
1534 1 487 490
1535 1 487 491
1536 1 487 492
1537 2 1297 1298
1538 1 1297 1300
1539 1 1297 1301
1540 1 1297 1302
1541 2 1531 1532
1542 1 1531 1534
1543 1 1531 1535
1544 1 1531 1536
1545 2 1144 1145
1546 1 1144 1147
1547 1 1144 1148
1548 1 1144 1149
1549 4 957 963
1550 2 235 236
1551 1 235 238
1552 1 235 239
1553 1 235 240
1554 2 802 803
1555 1 802 805
1556 1 802 806
1557 1 802 807
1558 2 1018 1019
1559 1 1018 1021
1560 1 1018 1022
1561 1 1018 1023
1562 2 2134 2135
1563 1 2134 2137
1564 1 2134 2138
1565 1 2134 2139
1566 5 1703 1704
1567 3 1703 1708
1568 3 1703 1709
1569 5 1091 1092
1570 3 1091 1096
1571 3 1091 1097
1572 4 1092 1098
1573 5 2135 2136
1574 3 2135 2140
1575 3 2135 2141
1576 2 1468 1469
1577 1 1468 1471
1578 1 1468 1472
1579 1 1468 1473
1580 5 1469 1470
1581 3 1469 1474
1582 3 1469 1475
1583 4 1470 1476
1584 2 1495 1496
1585 1 1495 1498
1586 1 1495 1499
1587 1 1495 1500
1588 4 327 333
1589 4 1704 1710
1590 5 1838 1839
1591 3 1838 1843
1592 3 1838 1844
1593 2 1990 1991
1594 1 1990 1993
1595 1 1990 1994
1596 1 1990 1995
1597 5 1991 1992
1598 3 1991 1996
1599 3 1991 1997
1600 4 1992 1998
1601 5 236 237
1602 3 236 241
1603 3 236 242
1604 4 237 243
1605 5 803 804
1606 3 803 808
1607 3 803 809
1608 4 804 810
1609 2 1189 1190
1610 1 1189 1192
1611 1 1189 1193
1612 1 1189 1194
1613 5 1190 1191
1614 3 1190 1195
1615 3 1190 1196
1616 4 1191 1197
1617 4 1047 1053
1618 5 1442 1443
1619 3 1442 1447
1620 3 1442 1448
1621 4 1443 1449
1622 5 326 327
1623 3 326 331
1624 3 326 332
1625 5 731 732
1626 3 731 736
1627 3 731 737
1628 2 1837 1838
1629 1 1837 1840
1630 1 1837 1841
1631 1 1837 1842
1632 2 856 857
1633 1 856 859
1634 1 856 860
1635 1 856 861
1636 4 2136 2142
1637 2 82 83
1638 1 82 85
1639 1 82 86
1640 1 82 87
1641 5 83 84
1642 3 83 88
1643 3 83 89
1644 4 84 90
1645 2 325 326
1646 1 325 328
1647 1 325 329
1648 1 325 330
1649 5 1496 1497
1650 3 1496 1501
1651 3 1496 1502
1652 4 1497 1503
1653 2 1522 1523
1654 1 1522 1525
1655 1 1522 1526
1656 1 1522 1527
1657 5 1523 1524
1658 3 1523 1528
1659 3 1523 1529
1660 4 1524 1530
1661 2 1720 1721
1662 1 1720 1723
1663 1 1720 1724
1664 1 1720 1725
1665 4 759 765
1666 2 1054 1055
1667 1 1054 1057
1668 1 1054 1058
1669 1 1054 1059
1670 5 1055 1056
1671 3 1055 1060
1672 3 1055 1061
1673 4 1056 1062
1674 5 1721 1722
1675 3 1721 1726
1676 3 1721 1727
1677 4 1722 1728
1678 2 262 263
1679 1 262 265
1680 1 262 266
1681 1 262 267
1682 5 1946 1947
1683 3 1946 1951
1684 3 1946 1952
1685 2 289 290
1686 1 289 292
1687 1 289 293
1688 1 289 294
1689 5 290 291
1690 3 290 295
1691 3 290 296
1692 4 291 297
1693 4 2064 2070
1694 5 470 471
1695 3 470 475
1696 3 470 476
1697 4 471 477
1698 2 514 515
1699 1 514 517
1700 1 514 518
1701 1 514 519
1702 5 515 516
1703 3 515 520
1704 3 515 521
1705 4 516 522
1706 2 730 731
1707 1 730 733
1708 1 730 734
1709 1 730 735
1710 5 605 606
1711 3 605 610
1712 3 605 611
1713 4 732 738
1714 2 2062 2063
1715 1 2062 2065
1716 1 2062 2066
1717 1 2062 2067
1718 5 1037 1038
1719 3 1037 1042
1720 3 1037 1043
1721 4 1038 1044
1722 4 75 81
1723 5 1181 1182
1724 3 1181 1186
1725 3 1181 1187
1726 4 1182 1188
1727 2 1630 1631
1728 1 1630 1633
1729 1 1630 1634
1730 1 1630 1635
1731 5 1631 1632
1732 3 1631 1636
1733 3 1631 1637
1734 4 1632 1638
1735 5 1784 1785
1736 3 1784 1789
1737 3 1784 1790
1738 2 2197 2198
1739 1 2197 2200
1740 1 2197 2201
1741 1 2197 2202
1742 5 2198 2199
1743 3 2198 2203
1744 3 2198 2204
1745 4 2199 2205
1746 2 1180 1181
1747 1 1180 1183
1748 1 1180 1184
1749 1 1180 1185
1750 4 1884 1890
1751 2 1882 1883
1752 1 1882 1885
1753 1 1882 1886
1754 1 1882 1887
1755 2 982 983
1756 1 982 985
1757 1 982 986
1758 1 982 987
1759 5 983 984
1760 3 983 988
1761 3 983 989
1762 4 984 990
1763 2 1540 1541
1764 1 1540 1543
1765 1 1540 1544
1766 1 1540 1545
1767 5 1541 1542
1768 3 1541 1546
1769 3 1541 1547
1770 4 1542 1548
1771 2 1783 1784
1772 1 1783 1786
1773 1 1783 1787
1774 1 1783 1788
1775 4 1785 1791
1776 4 1839 1845
1777 2 2233 2234
1778 1 2233 2236
1779 1 2233 2237
1780 1 2233 2238
1781 2 1972 1973
1782 1 1972 1975
1783 1 1972 1976
1784 1 1972 1977
1785 5 1973 1974
1786 3 1973 1978
1787 3 1973 1979
1788 4 1974 1980
1789 4 66 72
1790 4 264 270
1791 4 606 612
1792 2 973 974
1793 1 973 976
1794 1 973 977
1795 1 973 978
1796 5 974 975
1797 3 974 979
1798 3 974 980
1799 4 975 981
1800 5 1883 1884
1801 3 1883 1888
1802 3 1883 1889
1803 2 1486 1487
1804 1 1486 1489
1805 1 1486 1490
1806 1 1486 1491
1807 5 1487 1488
1808 3 1487 1492
1809 3 1487 1493
1810 4 1488 1494
1811 5 2234 2235
1812 3 2234 2239
1813 3 2234 2240
1814 2 2017 2018
1815 1 2017 2020
1816 1 2017 2021
1817 1 2017 2022
1818 5 2018 2019
1819 3 2018 2023
1820 3 2018 2024
1821 4 2019 2025
1822 2 2098 2099
1823 1 2098 2101
1824 1 2098 2102
1825 1 2098 2103
1826 5 2099 2100
1827 3 2099 2104
1828 3 2099 2105
1829 5 2063 2064
1830 3 2063 2068
1831 3 2063 2069
1832 4 2235 2241
1833 2 64 65
1834 1 64 67
1835 1 64 68
1836 1 64 69
1837 5 65 66
1838 3 65 70
1839 3 65 71
1840 5 263 264
1841 3 263 268
1842 3 263 269
1843 2 946 947
1844 1 946 949
1845 1 946 950
1846 1 946 951
1847 5 1019 1020
1848 3 1019 1024
1849 3 1019 1025
1850 4 1020 1026
1851 2 1459 1460
1852 1 1459 1462
1853 1 1459 1463
1854 1 1459 1464
1855 5 1460 1461
1856 3 1460 1465
1857 3 1460 1466
1858 4 1461 1467
1859 4 309 315
1860 2 307 308
1861 1 307 310
1862 1 307 311
1863 1 307 312
1864 2 1036 1037
1865 1 1036 1039
1866 1 1036 1040
1867 1 1036 1041
1868 4 1029 1035
1869 2 469 470
1870 1 469 472
1871 1 469 473
1872 1 469 474
1873 2 100 101
1874 1 100 103
1875 1 100 104
1876 1 100 105
1877 2 1090 1091
1878 1 1090 1093
1879 1 1090 1094
1880 1 1090 1095
1881 2 1981 1982
1882 1 1981 1984
1883 1 1981 1985
1884 1 1981 1986
1885 2 55 56
1886 1 55 58
1887 1 55 59
1888 1 55 60
1889 5 56 57
1890 3 56 61
1891 3 56 62
1892 4 57 63
1893 2 145 146
1894 1 145 148
1895 1 145 149
1896 1 145 150
1897 4 147 153
1898 2 415 416
1899 1 415 418
1900 1 415 419
1901 1 415 420
1902 2 757 758
1903 1 757 760
1904 1 757 761
1905 1 757 762
1906 5 758 759
1907 3 758 763
1908 3 758 764
1909 4 2082 2088
1910 2 1315 1316
1911 1 1315 1318
1912 1 1315 1319
1913 1 1315 1320
1914 5 1316 1317
1915 3 1316 1321
1916 3 1316 1322
1917 4 1317 1323
1918 2 1594 1595
1919 1 1594 1597
1920 1 1594 1598
1921 1 1594 1599
1922 5 1595 1596
1923 3 1595 1600
1924 3 1595 1601
1925 4 1596 1602
1926 5 1343 1344
1927 3 1343 1348
1928 3 1343 1349
1929 2 1927 1928
1930 1 1927 1930
1931 1 1927 1931
1932 1 1927 1932
1933 5 1928 1929
1934 3 1928 1933
1935 3 1928 1934
1936 4 1929 1935
1937 4 2100 2106
1938 5 2081 2082
1939 3 2081 2086
1940 3 2081 2087
1941 4 786 792
1942 5 785 786
1943 3 785 790
1944 3 785 791
1945 4 48 54
1946 5 308 309
1947 3 308 313
1948 3 308 314
1949 5 416 417
1950 3 416 421
1951 3 416 422
1952 4 417 423
1953 4 1344 1350
1954 2 784 785
1955 1 784 787
1956 1 784 788
1957 1 784 789
1958 2 1342 1343
1959 1 1342 1345
1960 1 1342 1346
1961 1 1342 1347
1962 2 955 956
1963 1 955 958
1964 1 955 959
1965 1 955 960
1966 5 956 957
1967 3 956 961
1968 3 956 962
1969 5 47 48
1970 3 47 52
1971 3 47 53
1972 5 146 147
1973 3 146 151
1974 3 146 152
1975 2 2080 2081
1976 1 2080 2083
1977 1 2080 2084
1978 1 2080 2085
1979 4 1155 1161
1980 2 1549 1550
1981 1 1549 1552
1982 1 1549 1553
1983 1 1549 1554
1984 5 1550 1551
1985 3 1550 1555
1986 3 1550 1556
1987 4 1551 1557
1988 2 1603 1604
1989 1 1603 1606
1990 1 1603 1607
1991 1 1603 1608
1992 5 1604 1605
1993 3 1604 1609
1994 3 1604 1610
1995 4 1605 1611
1996 4 2172 2178
1997 2 1441 1442
1998 1 1441 1444
1999 1 1441 1445
2000 1 1441 1446

Angles

1 2 1217 1216 1219
2 2 1217 1216 1220
3 2 1217 1216 1221
4 1 1219 1216 1220
5 1 1219 1216 1221
6 1 1220 1216 1221
7 2 1568 1567 1570
8 2 1568 1567 1571
9 2 1568 1567 1572
10 1 1570 1567 1571
11 1 1570 1567 1572
12 1 1571 1567 1572
13 5 1567 1568 1569
14 4 1567 1568 1573
15 4 1567 1568 1574
16 7 1569 1568 1573
17 7 1569 1568 1574
18 6 1573 1568 1574
19 2 1676 1675 1678
20 2 1676 1675 1679
21 2 1676 1675 1680
22 1 1678 1675 1679
23 1 1678 1675 1680
24 1 1679 1675 1680
25 5 1675 1676 1677
26 4 1675 1676 1681
27 4 1675 1676 1682
28 7 1677 1676 1681
29 7 1677 1676 1682
30 6 1681 1676 1682
31 3 1676 1677 1683
32 5 1819 1820 1821
33 4 1819 1820 1825
34 4 1819 1820 1826
35 7 1821 1820 1825
36 7 1821 1820 1826
37 6 1825 1820 1826
38 3 1820 1821 1827
39 3 1937 1938 1944
40 2 2225 2224 2227
41 2 2225 2224 2228
42 2 2225 2224 2229
43 1 2227 2224 2228
44 1 2227 2224 2229
45 1 2228 2224 2229
46 5 2224 2225 2226
47 4 2224 2225 2230
48 4 2224 2225 2231
49 7 2226 2225 2230
50 7 2226 2225 2231
51 6 2230 2225 2231
52 3 2225 2226 2232
53 3 533 534 540
54 2 1010 1009 1012
55 2 1010 1009 1013
56 2 1010 1009 1014
57 1 1012 1009 1013
58 1 1012 1009 1014
59 1 1013 1009 1014
60 5 1009 1010 1011
61 4 1009 1010 1015
62 4 1009 1010 1016
63 7 1011 1010 1015
64 7 1011 1010 1016
65 6 1015 1010 1016
66 3 1010 1011 1017
67 5 1216 1217 1218
68 4 1216 1217 1222
69 4 1216 1217 1223
70 7 1218 1217 1222
71 7 1218 1217 1223
72 6 1222 1217 1223
73 3 1217 1218 1224
74 2 1289 1288 1291
75 2 1289 1288 1292
76 2 1289 1288 1293
77 1 1291 1288 1292
78 1 1291 1288 1293
79 1 1292 1288 1293
80 5 1288 1289 1290
81 4 1288 1289 1294
82 4 1288 1289 1295
83 7 1290 1289 1294
84 7 1290 1289 1295
85 6 1294 1289 1295
86 3 1289 1290 1296
87 2 1397 1396 1399
88 2 1397 1396 1400
89 2 1397 1396 1401
90 1 1399 1396 1400
91 1 1399 1396 1401
92 1 1400 1396 1401
93 5 1396 1397 1398
94 4 1396 1397 1402
95 4 1396 1397 1403
96 7 1398 1397 1402
97 7 1398 1397 1403
98 6 1402 1397 1403
99 2 1451 1450 1453
100 2 1451 1450 1454
101 2 1451 1450 1455
102 1 1453 1450 1454
103 1 1453 1450 1455
104 1 1454 1450 1455
105 5 1450 1451 1452
106 4 1450 1451 1456
107 4 1450 1451 1457
108 7 1452 1451 1456
109 7 1452 1451 1457
110 6 1456 1451 1457
111 3 1451 1452 1458
112 2 1820 1819 1822
113 2 1820 1819 1823
114 2 1820 1819 1824
115 1 1822 1819 1823
116 1 1822 1819 1824
117 1 1823 1819 1824
118 2 182 181 184
119 2 182 181 185
120 2 182 181 186
121 1 184 181 185
122 1 184 181 186
123 1 185 181 186
124 5 181 182 183
125 4 181 182 187
126 4 181 182 188
127 7 183 182 187
128 7 183 182 188
129 6 187 182 188
130 3 182 183 189
131 5 1270 1271 1272
132 4 1270 1271 1276
133 4 1270 1271 1277
134 7 1272 1271 1276
135 7 1272 1271 1277
136 6 1276 1271 1277
137 3 1397 1398 1404
138 2 1271 1270 1273
139 2 1271 1270 1274
140 2 1271 1270 1275
141 1 1273 1270 1274
142 1 1273 1270 1275
143 1 1274 1270 1275
144 2 1001 1000 1003
145 2 1001 1000 1004
146 2 1001 1000 1005
147 1 1003 1000 1004
148 1 1003 1000 1005
149 1 1004 1000 1005
150 5 1000 1001 1002
151 4 1000 1001 1006
152 4 1000 1001 1007
153 7 1002 1001 1006
154 7 1002 1001 1007
155 6 1006 1001 1007
156 3 1001 1002 1008
157 2 587 586 589
158 2 587 586 590
159 2 587 586 591
160 1 589 586 590
161 1 589 586 591
162 1 590 586 591
163 2 1307 1306 1309
164 2 1307 1306 1310
165 2 1307 1306 1311
166 1 1309 1306 1310
167 1 1309 1306 1311
168 1 1310 1306 1311
169 5 1306 1307 1308
170 4 1306 1307 1312
171 4 1306 1307 1313
172 7 1308 1307 1312
173 7 1308 1307 1313
174 6 1312 1307 1313
175 3 1307 1308 1314
176 3 1568 1569 1575
177 5 2242 2243 2244
178 4 2242 2243 2248
179 4 2242 2243 2249
180 7 2244 2243 2248
181 7 2244 2243 2249
182 6 2248 2243 2249
183 2 434 433 436
184 2 434 433 437
185 2 434 433 438
186 1 436 433 437
187 1 436 433 438
188 1 437 433 438
189 5 433 434 435
190 4 433 434 439
191 4 433 434 440
192 7 435 434 439
193 7 435 434 440
194 6 439 434 440
195 3 434 435 441
196 2 461 460 463
197 2 461 460 464
198 2 461 460 465
199 1 463 460 464
200 1 463 460 465
201 1 464 460 465
202 2 533 532 535
203 2 533 532 536
204 2 533 532 537
205 1 535 532 536
206 1 535 532 537
207 1 536 532 537
208 5 532 533 534
209 4 532 533 538
210 4 532 533 539
211 7 534 533 538
212 7 534 533 539
213 6 538 533 539
214 2 137 136 139
215 2 137 136 140
216 2 137 136 141
217 1 139 136 140
218 1 139 136 141
219 1 140 136 141
220 2 2243 2242 2245
221 2 2243 2242 2246
222 2 2243 2242 2247
223 1 2245 2242 2246
224 1 2245 2242 2247
225 1 2246 2242 2247
226 2 1073 1072 1075
227 2 1073 1072 1076
228 2 1073 1072 1077
229 1 1075 1072 1076
230 1 1075 1072 1077
231 1 1076 1072 1077
232 5 1072 1073 1074
233 4 1072 1073 1078
234 4 1072 1073 1079
235 7 1074 1073 1078
236 7 1074 1073 1079
237 6 1078 1073 1079
238 3 1073 1074 1080
239 5 1405 1406 1407
240 4 1405 1406 1411
241 4 1405 1406 1412
242 7 1407 1406 1411
243 7 1407 1406 1412
244 6 1411 1406 1412
245 3 1406 1407 1413
246 2 1955 1954 1957
247 2 1955 1954 1958
248 2 1955 1954 1959
249 1 1957 1954 1958
250 1 1957 1954 1959
251 1 1958 1954 1959
252 3 1271 1272 1278
253 5 1954 1955 1956
254 4 1954 1955 1960
255 4 1954 1955 1961
256 7 1956 1955 1960
257 7 1956 1955 1961
258 6 1960 1955 1961
259 3 2243 2244 2250
260 5 586 587 588
261 4 586 587 592
262 4 586 587 593
263 7 588 587 592
264 7 588 587 593
265 6 592 587 593
266 5 1225 1226 1227
267 4 1225 1226 1231
268 4 1225 1226 1232
269 7 1227 1226 1231
270 7 1227 1226 1232
271 6 1231 1226 1232
272 2 191 190 193
273 2 191 190 194
274 2 191 190 195
275 1 193 190 194
276 1 193 190 195
277 1 194 190 195
278 5 190 191 192
279 4 190 191 196
280 4 190 191 197
281 7 192 191 196
282 7 192 191 197
283 6 196 191 197
284 2 299 298 301
285 2 299 298 302
286 2 299 298 303
287 1 301 298 302
288 1 301 298 303
289 1 302 298 303
290 2 1514 1513 1516
291 2 1514 1513 1517
292 2 1514 1513 1518
293 1 1516 1513 1517
294 1 1516 1513 1518
295 1 1517 1513 1518
296 5 1513 1514 1515
297 4 1513 1514 1519
298 4 1513 1514 1520
299 7 1515 1514 1519
300 7 1515 1514 1520
301 6 1519 1514 1520
302 3 1514 1515 1521
303 2 1919 1918 1921
304 2 1919 1918 1922
305 2 1919 1918 1923
306 1 1921 1918 1922
307 1 1921 1918 1923
308 1 1922 1918 1923
309 5 1918 1919 1920
310 4 1918 1919 1924
311 4 1918 1919 1925
312 7 1920 1919 1924
313 7 1920 1919 1925
314 6 1924 1919 1925
315 3 1919 1920 1926
316 5 1936 1937 1938
317 4 1936 1937 1942
318 4 1936 1937 1943
319 7 1938 1937 1942
320 7 1938 1937 1943
321 6 1942 1937 1943
322 3 1811 1812 1818
323 3 191 192 198
324 5 298 299 300
325 4 298 299 304
326 4 298 299 305
327 7 300 299 304
328 7 300 299 305
329 6 304 299 305
330 2 371 370 373
331 2 371 370 374
332 2 371 370 375
333 1 373 370 374
334 1 373 370 375
335 1 374 370 375
336 5 370 371 372
337 4 370 371 376
338 4 370 371 377
339 7 372 371 376
340 7 372 371 377
341 6 376 371 377
342 3 371 372 378
343 2 641 640 643
344 2 641 640 644
345 2 641 640 645
346 1 643 640 644
347 1 643 640 645
348 1 644 640 645
349 5 640 641 642
350 4 640 641 646
351 4 640 641 647
352 7 642 641 646
353 7 642 641 647
354 6 646 641 647
355 3 641 642 648
356 2 668 667 670
357 2 668 667 671
358 2 668 667 672
359 1 670 667 671
360 1 670 667 672
361 1 671 667 672
362 5 667 668 669
363 4 667 668 673
364 4 667 668 674
365 7 669 668 673
366 7 669 668 674
367 6 673 668 674
368 2 677 676 679
369 2 677 676 680
370 2 677 676 681
371 1 679 676 680
372 1 679 676 681
373 1 680 676 681
374 5 676 677 678
375 4 676 677 682
376 4 676 677 683
377 7 678 677 682
378 7 678 677 683
379 6 682 677 683
380 3 677 678 684
381 3 1532 1533 1539
382 2 1577 1576 1579
383 2 1577 1576 1580
384 2 1577 1576 1581
385 1 1579 1576 1580
386 1 1579 1576 1581
387 1 1580 1576 1581
388 5 1576 1577 1578
389 4 1576 1577 1582
390 4 1576 1577 1583
391 7 1578 1577 1582
392 7 1578 1577 1583
393 6 1582 1577 1583
394 3 1577 1578 1584
395 2 542 541 544
396 2 542 541 545
397 2 542 541 546
398 1 544 541 545
399 1 544 541 546
400 1 545 541 546
401 2 425 424 427
402 2 425 424 428
403 2 425 424 429
404 1 427 424 428
405 1 427 424 429
406 1 428 424 429
407 5 424 425 426
408 4 424 425 430
409 4 424 425 431
410 7 426 425 430
411 7 426 425 431
412 6 430 425 431
413 3 425 426 432
414 3 1874 1875 1881
415 3 542 543 549
416 2 659 658 661
417 2 659 658 662
418 2 659 658 663
419 1 661 658 662
420 1 661 658 663
421 1 662 658 663
422 5 658 659 660
423 4 658 659 664
424 4 658 659 665
425 7 660 659 664
426 7 660 659 665
427 6 664 659 665
428 3 659 660 666
429 2 1199 1198 1201
430 2 1199 1198 1202
431 2 1199 1198 1203
432 1 1201 1198 1202
433 1 1201 1198 1203
434 1 1202 1198 1203
435 5 1198 1199 1200
436 4 1198 1199 1204
437 4 1198 1199 1205
438 7 1200 1199 1204
439 7 1200 1199 1205
440 6 1204 1199 1205
441 3 1226 1227 1233
442 2 497 496 499
443 2 497 496 500
444 2 497 496 501
445 1 499 496 500
446 1 499 496 501
447 1 500 496 501
448 3 1199 1200 1206
449 5 2107 2108 2109
450 4 2107 2108 2113
451 4 2107 2108 2114
452 7 2109 2108 2113
453 7 2109 2108 2114
454 6 2113 2108 2114
455 3 2108 2109 2115
456 5 541 542 543
457 4 541 542 547
458 4 541 542 548
459 7 543 542 547
460 7 543 542 548
461 6 547 542 548
462 2 1802 1801 1804
463 2 1802 1801 1805
464 2 1802 1801 1806
465 1 1804 1801 1805
466 1 1804 1801 1806
467 1 1805 1801 1806
468 5 1801 1802 1803
469 4 1801 1802 1807
470 4 1801 1802 1808
471 7 1803 1802 1807
472 7 1803 1802 1808
473 6 1807 1802 1808
474 3 1802 1803 1809
475 2 1901 1900 1903
476 2 1901 1900 1904
477 2 1901 1900 1905
478 1 1903 1900 1904
479 1 1903 1900 1905
480 1 1904 1900 1905
481 2 200 199 202
482 2 200 199 203
483 2 200 199 204
484 1 202 199 203
485 1 202 199 204
486 1 203 199 204
487 5 793 794 795
488 4 793 794 799
489 4 793 794 800
490 7 795 794 799
491 7 795 794 800
492 6 799 794 800
493 3 947 948 954
494 3 497 498 504
495 3 668 669 675
496 2 749 748 751
497 2 749 748 752
498 2 749 748 753
499 1 751 748 752
500 1 751 748 753
501 1 752 748 753
502 5 748 749 750
503 4 748 749 754
504 4 748 749 755
505 7 750 749 754
506 7 750 749 755
507 6 754 749 755
508 3 938 939 945
509 2 992 991 994
510 2 992 991 995
511 2 992 991 996
512 1 994 991 995
513 1 994 991 996
514 1 995 991 996
515 5 991 992 993
516 4 991 992 997
517 4 991 992 998
518 7 993 992 997
519 7 993 992 998
520 6 997 992 998
521 3 992 993 999
522 2 1811 1810 1813
523 2 1811 1810 1814
524 2 1811 1810 1815
525 1 1813 1810 1814
526 1 1813 1810 1815
527 1 1814 1810 1815
528 5 1810 1811 1812
529 4 1810 1811 1816
530 4 1810 1811 1817
531 7 1812 1811 1816
532 7 1812 1811 1817
533 6 1816 1811 1817
534 2 1829 1828 1831
535 2 1829 1828 1832
536 2 1829 1828 1833
537 1 1831 1828 1832
538 1 1831 1828 1833
539 1 1832 1828 1833
540 5 1828 1829 1830
541 4 1828 1829 1834
542 4 1828 1829 1835
543 7 1830 1829 1834
544 7 1830 1829 1835
545 6 1834 1829 1835
546 5 1846 1847 1848
547 4 1846 1847 1852
548 4 1846 1847 1853
549 7 1848 1847 1852
550 7 1848 1847 1853
551 6 1852 1847 1853
552 2 1937 1936 1939
553 2 1937 1936 1940
554 2 1937 1936 1941
555 1 1939 1936 1940
556 1 1939 1936 1941
557 1 1940 1936 1941
558 2 1847 1846 1849
559 2 1847 1846 1850
560 2 1847 1846 1851
561 1 1849 1846 1850
562 1 1849 1846 1851
563 1 1850 1846 1851
564 2 1874 1873 1876
565 2 1874 1873 1877
566 2 1874 1873 1878
567 1 1876 1873 1877
568 1 1876 1873 1878
569 1 1877 1873 1878
570 5 496 497 498
571 4 496 497 502
572 4 496 497 503
573 7 498 497 502
574 7 498 497 503
575 6 502 497 503
576 3 1955 1956 1962
577 5 1873 1874 1875
578 4 1873 1874 1879
579 4 1873 1874 1880
580 7 1875 1874 1879
581 7 1875 1874 1880
582 6 1879 1874 1880
583 3 2189 2190 2196
584 2 2189 2188 2191
585 2 2189 2188 2192
586 2 2189 2188 2193
587 1 2191 2188 2192
588 1 2191 2188 2193
589 1 2192 2188 2193
590 5 2188 2189 2190
591 4 2188 2189 2194
592 4 2188 2189 2195
593 7 2190 2189 2194
594 7 2190 2189 2195
595 6 2194 2189 2195
596 2 794 793 796
597 2 794 793 797
598 2 794 793 798
599 1 796 793 797
600 1 796 793 798
601 1 797 793 798
602 3 794 795 801
603 2 1226 1225 1228
604 2 1226 1225 1229
605 2 1226 1225 1230
606 1 1228 1225 1229
607 1 1228 1225 1230
608 1 1229 1225 1230
609 3 299 300 306
610 2 1253 1252 1255
611 2 1253 1252 1256
612 2 1253 1252 1257
613 1 1255 1252 1256
614 1 1255 1252 1257
615 1 1256 1252 1257
616 3 560 561 567
617 2 902 901 904
618 2 902 901 905
619 2 902 901 906
620 1 904 901 905
621 1 904 901 906
622 1 905 901 906
623 2 578 577 580
624 2 578 577 581
625 2 578 577 582
626 1 580 577 581
627 1 580 577 582
628 1 581 577 582
629 5 577 578 579
630 4 577 578 583
631 4 577 578 584
632 7 579 578 583
633 7 579 578 584
634 6 583 578 584
635 2 713 712 715
636 2 713 712 716
637 2 713 712 717
638 1 715 712 716
639 1 715 712 717
640 1 716 712 717
641 5 712 713 714
642 4 712 713 718
643 4 712 713 719
644 7 714 713 718
645 7 714 713 719
646 6 718 713 719
647 3 713 714 720
648 2 1244 1243 1246
649 2 1244 1243 1247
650 2 1244 1243 1248
651 1 1246 1243 1247
652 1 1246 1243 1248
653 1 1247 1243 1248
654 5 1243 1244 1245
655 4 1243 1244 1249
656 4 1243 1244 1250
657 7 1245 1244 1249
658 7 1245 1244 1250
659 6 1249 1244 1250
660 3 1244 1245 1251
661 2 1415 1414 1417
662 2 1415 1414 1418
663 2 1415 1414 1419
664 1 1417 1414 1418
665 1 1417 1414 1419
666 1 1418 1414 1419
667 3 1415 1416 1422
668 2 380 379 382
669 2 380 379 383
670 2 380 379 384
671 1 382 379 383
672 1 382 379 384
673 1 383 379 384
674 5 379 380 381
675 4 379 380 385
676 4 379 380 386
677 7 381 380 385
678 7 381 380 386
679 6 385 380 386
680 3 380 381 387
681 2 560 559 562
682 2 560 559 563
683 2 560 559 564
684 1 562 559 563
685 1 562 559 564
686 1 563 559 564
687 5 559 560 561
688 4 559 560 565
689 4 559 560 566
690 7 561 560 565
691 7 561 560 566
692 6 565 560 566
693 3 578 579 585
694 2 1118 1117 1120
695 2 1118 1117 1121
696 2 1118 1117 1122
697 1 1120 1117 1121
698 1 1120 1117 1122
699 1 1121 1117 1122
700 5 1117 1118 1119
701 4 1117 1118 1123
702 4 1117 1118 1124
703 7 1119 1118 1123
704 7 1119 1118 1124
705 6 1123 1118 1124
706 3 1145 1146 1152
707 2 1559 1558 1561
708 2 1559 1558 1562
709 2 1559 1558 1563
710 1 1561 1558 1562
711 1 1561 1558 1563
712 1 1562 1558 1563
713 2 1856 1855 1858
714 2 1856 1855 1859
715 2 1856 1855 1860
716 1 1858 1855 1859
717 1 1858 1855 1860
718 1 1859 1855 1860
719 5 1855 1856 1857
720 4 1855 1856 1861
721 4 1855 1856 1862
722 7 1857 1856 1861
723 7 1857 1856 1862
724 6 1861 1856 1862
725 3 1856 1857 1863
726 5 226 227 228
727 4 226 227 232
728 4 226 227 233
729 7 228 227 232
730 7 228 227 233
731 6 232 227 233
732 3 227 228 234
733 5 1414 1415 1416
734 4 1414 1415 1420
735 4 1414 1415 1421
736 7 1416 1415 1420
737 7 1416 1415 1421
738 6 1420 1415 1421
739 2 254 253 256
740 2 254 253 257
741 2 254 253 258
742 1 256 253 257
743 1 256 253 258
744 1 257 253 258
745 5 253 254 255
746 4 253 254 259
747 4 253 254 260
748 7 255 254 259
749 7 255 254 260
750 6 259 254 260
751 3 254 255 261
752 5 1162 1163 1164
753 4 1162 1163 1168
754 4 1162 1163 1169
755 7 1164 1163 1168
756 7 1164 1163 1169
757 6 1168 1163 1169
758 2 227 226 229
759 2 227 226 230
760 2 227 226 231
761 1 229 226 230
762 1 229 226 231
763 1 230 226 231
764 2 1262 1261 1264
765 2 1262 1261 1265
766 2 1262 1261 1266
767 1 1264 1261 1265
768 1 1264 1261 1266
769 1 1265 1261 1266
770 5 1261 1262 1263
771 4 1261 1262 1267
772 4 1261 1262 1268
773 7 1263 1262 1267
774 7 1263 1262 1268
775 6 1267 1262 1268
776 3 1262 1263 1269
777 2 1613 1612 1615
778 2 1613 1612 1616
779 2 1613 1612 1617
780 1 1615 1612 1616
781 1 1615 1612 1617
782 1 1616 1612 1617
783 5 1612 1613 1614
784 4 1612 1613 1618
785 4 1612 1613 1619
786 7 1614 1613 1618
787 7 1614 1613 1619
788 6 1618 1613 1619
789 2 1694 1693 1696
790 2 1694 1693 1697
791 2 1694 1693 1698
792 1 1696 1693 1697
793 1 1696 1693 1698
794 1 1697 1693 1698
795 5 478 479 480
796 4 478 479 484
797 4 478 479 485
798 7 480 479 484
799 7 480 479 485
800 6 484 479 485
801 3 479 480 486
802 2 722 721 724
803 2 722 721 725
804 2 722 721 726
805 1 724 721 725
806 1 724 721 726
807 1 725 721 726
808 5 721 722 723
809 4 721 722 727
810 4 721 722 728
811 7 723 722 727
812 7 723 722 728
813 6 727 722 728
814 3 722 723 729
815 5 1693 1694 1695
816 4 1693 1694 1699
817 4 1693 1694 1700
818 7 1695 1694 1699
819 7 1695 1694 1700
820 6 1699 1694 1700
821 3 1064 1065 1071
822 3 1118 1119 1125
823 3 2162 2163 2169
824 2 1433 1432 1435
825 2 1433 1432 1436
826 2 1433 1432 1437
827 1 1435 1432 1436
828 1 1435 1432 1437
829 1 1436 1432 1437
830 5 1432 1433 1434
831 4 1432 1433 1438
832 4 1432 1433 1439
833 7 1434 1433 1438
834 7 1434 1433 1439
835 6 1438 1433 1439
836 3 1433 1434 1440
837 2 479 478 481
838 2 479 478 482
839 2 479 478 483
840 1 481 478 482
841 1 481 478 483
842 1 482 478 483
843 5 1558 1559 1560
844 4 1558 1559 1564
845 4 1558 1559 1565
846 7 1560 1559 1564
847 7 1560 1559 1565
848 6 1564 1559 1565
849 3 1559 1560 1566
850 3 1613 1614 1620
851 5 901 902 903
852 4 901 902 907
853 4 901 902 908
854 7 903 902 907
855 7 903 902 908
856 6 907 902 908
857 5 1144 1145 1146
858 4 1144 1145 1150
859 4 1144 1145 1151
860 7 1146 1145 1150
861 7 1146 1145 1151
862 6 1150 1145 1151
863 3 1163 1164 1170
864 2 2162 2161 2164
865 2 2162 2161 2165
866 2 2162 2161 2166
867 1 2164 2161 2165
868 1 2164 2161 2166
869 1 2165 2161 2166
870 5 1531 1532 1533
871 4 1531 1532 1537
872 4 1531 1532 1538
873 7 1533 1532 1537
874 7 1533 1532 1538
875 6 1537 1532 1538
876 2 119 118 121
877 2 119 118 122
878 2 119 118 123
879 1 121 118 122
880 1 121 118 123
881 1 122 118 123
882 5 118 119 120
883 4 118 119 124
884 4 118 119 125
885 7 120 119 124
886 7 120 119 125
887 6 124 119 125
888 3 119 120 126
889 2 776 775 778
890 2 776 775 779
891 2 776 775 780
892 1 778 775 779
893 1 778 775 780
894 1 779 775 780
895 5 127 128 129
896 4 127 128 133
897 4 127 128 134
898 7 129 128 133
899 7 129 128 134
900 6 133 128 134
901 2 1127 1126 1129
902 2 1127 1126 1130
903 2 1127 1126 1131
904 1 1129 1126 1130
905 1 1129 1126 1131
906 1 1130 1126 1131
907 5 136 137 138
908 4 136 137 142
909 4 136 137 143
910 7 138 137 142
911 7 138 137 143
912 6 142 137 143
913 3 128 129 135
914 2 245 244 247
915 2 245 244 248
916 2 245 244 249
917 1 247 244 248
918 1 247 244 249
919 1 248 244 249
920 5 244 245 246
921 4 244 245 250
922 4 244 245 251
923 7 246 245 250
924 7 246 245 251
925 6 250 245 251
926 3 245 246 252
927 2 767 766 769
928 2 767 766 770
929 2 767 766 771
930 1 769 766 770
931 1 769 766 771
932 1 770 766 771
933 5 766 767 768
934 4 766 767 772
935 4 766 767 773
936 7 768 767 772
937 7 768 767 773
938 6 772 767 773
939 3 767 768 774
940 5 775 776 777
941 4 775 776 781
942 4 775 776 782
943 7 777 776 781
944 7 777 776 782
945 6 781 776 782
946 2 2153 2152 2155
947 2 2153 2152 2156
948 2 2153 2152 2157
949 1 2155 2152 2156
950 1 2155 2152 2157
951 1 2156 2152 2157
952 2 2 1 4
953 2 2 1 5
954 2 2 1 6
955 1 4 1 5
956 1 4 1 6
957 1 5 1 6
958 2 569 568 571
959 2 569 568 572
960 2 569 568 573
961 1 571 568 572
962 1 571 568 573
963 1 572 568 573
964 3 137 138 144
965 2 335 334 337
966 2 335 334 338
967 2 335 334 339
968 1 337 334 338
969 1 337 334 339
970 1 338 334 339
971 5 334 335 336
972 4 334 335 340
973 4 334 335 341
974 7 336 335 340
975 7 336 335 341
976 6 340 335 341
977 3 335 336 342
978 3 587 588 594
979 3 2153 2154 2160
980 3 776 777 783
981 3 569 570 576
982 3 1208 1209 1215
983 2 1379 1378 1381
984 2 1379 1378 1382
985 2 1379 1378 1383
986 1 1381 1378 1382
987 1 1381 1378 1383
988 1 1382 1378 1383
989 5 1378 1379 1380
990 4 1378 1379 1384
991 4 1378 1379 1385
992 7 1380 1379 1384
993 7 1380 1379 1385
994 6 1384 1379 1385
995 3 1379 1380 1386
996 5 2215 2216 2217
997 4 2215 2216 2221
998 4 2215 2216 2222
999 7 2217 2216 2221
1000 7 2217 2216 2222
1001 6 2221 2216 2222
1002 3 2216 2217 2223
1003 2 11 10 13
1004 2 11 10 14
1005 2 11 10 15
1006 1 13 10 14
1007 1 13 10 15
1008 1 14 10 15
1009 5 1108 1109 1110
1010 4 1108 1109 1114
1011 4 1108 1109 1115
1012 7 1110 1109 1114
1013 7 1110 1109 1115
1014 6 1114 1109 1115
1015 2 2216 2215 2218
1016 2 2216 2215 2219
1017 2 2216 2215 2220
1018 1 2218 2215 2219
1019 1 2218 2215 2220
1020 1 2219 2215 2220
1021 2 1478 1477 1480
1022 2 1478 1477 1481
1023 2 1478 1477 1482
1024 1 1480 1477 1481
1025 1 1480 1477 1482
1026 1 1481 1477 1482
1027 5 1477 1478 1479
1028 4 1477 1478 1483
1029 4 1477 1478 1484
1030 7 1479 1478 1483
1031 7 1479 1478 1484
1032 6 1483 1478 1484
1033 3 1478 1479 1485
1034 2 1208 1207 1210
1035 2 1208 1207 1211
1036 2 1208 1207 1212
1037 1 1210 1207 1211
1038 1 1210 1207 1212
1039 1 1211 1207 1212
1040 5 1207 1208 1209
1041 4 1207 1208 1213
1042 4 1207 1208 1214
1043 7 1209 1208 1213
1044 7 1209 1208 1214
1045 6 1213 1208 1214
1046 2 1793 1792 1795
1047 2 1793 1792 1796
1048 2 1793 1792 1797
1049 1 1795 1792 1796
1050 1 1795 1792 1797
1051 1 1796 1792 1797
1052 5 1792 1793 1794
1053 4 1792 1793 1798
1054 4 1792 1793 1799
1055 7 1794 1793 1798
1056 7 1794 1793 1799
1057 6 1798 1793 1799
1058 3 1793 1794 1800
1059 2 1946 1945 1948
1060 2 1946 1945 1949
1061 2 1946 1945 1950
1062 1 1948 1945 1949
1063 1 1948 1945 1950
1064 1 1949 1945 1950
1065 3 1946 1947 1953
1066 2 938 937 940
1067 2 938 937 941
1068 2 938 937 942
1069 1 940 937 941
1070 1 940 937 942
1071 1 941 937 942
1072 3 20 21 27
1073 3 1127 1128 1134
1074 2 605 604 607
1075 2 605 604 608
1076 2 605 604 609
1077 1 607 604 608
1078 1 607 604 609
1079 1 608 604 609
1080 2 443 442 445
1081 2 443 442 446
1082 2 443 442 447
1083 1 445 442 446
1084 1 445 442 447
1085 1 446 442 447
1086 5 442 443 444
1087 4 442 443 448
1088 4 442 443 449
1089 7 444 443 448
1090 7 444 443 449
1091 6 448 443 449
1092 3 443 444 450
1093 2 830 829 832
1094 2 830 829 833
1095 2 830 829 834
1096 1 832 829 833
1097 1 832 829 834
1098 1 833 829 834
1099 5 829 830 831
1100 4 829 830 835
1101 4 829 830 836
1102 7 831 830 835
1103 7 831 830 836
1104 6 835 830 836
1105 3 830 831 837
1106 3 965 966 972
1107 2 1109 1108 1111
1108 2 1109 1108 1112
1109 2 1109 1108 1113
1110 1 1111 1108 1112
1111 1 1111 1108 1113
1112 1 1112 1108 1113
1113 3 1910 1911 1917
1114 5 1369 1370 1371
1115 4 1369 1370 1375
1116 4 1369 1370 1376
1117 7 1371 1370 1375
1118 7 1371 1370 1376
1119 6 1375 1370 1376
1120 3 1370 1371 1377
1121 5 1900 1901 1902
1122 4 1900 1901 1906
1123 4 1900 1901 1907
1124 7 1902 1901 1906
1125 7 1902 1901 1907
1126 6 1906 1901 1907
1127 3 1901 1902 1908
1128 5 2035 2036 2037
1129 4 2035 2036 2041
1130 4 2035 2036 2042
1131 7 2037 2036 2041
1132 7 2037 2036 2042
1133 6 2041 2036 2042
1134 3 2036 2037 2043
1135 2 2090 2089 2092
1136 2 2090 2089 2093
1137 2 2090 2089 2094
1138 1 2092 2089 2093
1139 1 2092 2089 2094
1140 1 2093 2089 2094
1141 5 2089 2090 2091
1142 4 2089 2090 2095
1143 4 2089 2090 2096
1144 7 2091 2090 2095
1145 7 2091 2090 2096
1146 6 2095 2090 2096
1147 3 2090 2091 2097
1148 3 875 876 882
1149 5 208 209 210
1150 4 208 209 214
1151 4 208 209 215
1152 7 210 209 214
1153 7 210 209 215
1154 6 214 209 215
1155 5 10 11 12
1156 4 10 11 16
1157 4 10 11 17
1158 7 12 11 16
1159 7 12 11 17
1160 6 16 11 17
1161 3 11 12 18
1162 5 2206 2207 2208
1163 4 2206 2207 2212
1164 4 2206 2207 2213
1165 7 2208 2207 2212
1166 7 2208 2207 2213
1167 6 2212 2207 2213
1168 3 209 210 216
1169 2 452 451 454
1170 2 452 451 455
1171 2 452 451 456
1172 1 454 451 455
1173 1 454 451 456
1174 1 455 451 456
1175 5 451 452 453
1176 4 451 452 457
1177 4 451 452 458
1178 7 453 452 457
1179 7 453 452 458
1180 6 457 452 458
1181 3 452 453 459
1182 2 704 703 706
1183 2 704 703 707
1184 2 704 703 708
1185 1 706 703 707
1186 1 706 703 708
1187 1 707 703 708
1188 5 703 704 705
1189 4 703 704 709
1190 4 703 704 710
1191 7 705 704 709
1192 7 705 704 710
1193 6 709 704 710
1194 3 704 705 711
1195 2 875 874 877
1196 2 875 874 878
1197 2 875 874 879
1198 1 877 874 878
1199 1 877 874 879
1200 1 878 874 879
1201 5 1909 1910 1911
1202 4 1909 1910 1915
1203 4 1909 1910 1916
1204 7 1911 1910 1915
1205 7 1911 1910 1916
1206 6 1915 1910 1916
1207 2 2207 2206 2209
1208 2 2207 2206 2210
1209 2 2207 2206 2211
1210 1 2209 2206 2210
1211 1 2209 2206 2211
1212 1 2210 2206 2211
1213 3 749 750 756
1214 5 937 938 939
1215 4 937 938 943
1216 4 937 938 944
1217 7 939 938 943
1218 7 939 938 944
1219 6 943 938 944
1220 2 1910 1909 1912
1221 2 1910 1909 1913
1222 2 1910 1909 1914
1223 1 1912 1909 1913
1224 1 1912 1909 1914
1225 1 1913 1909 1914
1226 5 1324 1325 1326
1227 4 1324 1325 1330
1228 4 1324 1325 1331
1229 7 1326 1325 1330
1230 7 1326 1325 1331
1231 6 1330 1325 1331
1232 3 1325 1326 1332
1233 5 1423 1424 1425
1234 4 1423 1424 1429
1235 4 1423 1424 1430
1236 7 1425 1424 1429
1237 7 1425 1424 1430
1238 6 1429 1424 1430
1239 3 1424 1425 1431
1240 3 1847 1848 1854
1241 2 2036 2035 2038
1242 2 2036 2035 2039
1243 2 2036 2035 2040
1244 1 2038 2035 2039
1245 1 2038 2035 2040
1246 1 2039 2035 2040
1247 5 217 218 219
1248 4 217 218 223
1249 4 217 218 224
1250 7 219 218 223
1251 7 219 218 224
1252 6 223 218 224
1253 2 47 46 49
1254 2 47 46 50
1255 2 47 46 51
1256 1 49 46 50
1257 1 49 46 51
1258 1 50 46 51
1259 2 884 883 886
1260 2 884 883 887
1261 2 884 883 888
1262 1 886 883 887
1263 1 886 883 888
1264 1 887 883 888
1265 5 883 884 885
1266 4 883 884 889
1267 4 883 884 890
1268 7 885 884 889
1269 7 885 884 890
1270 6 889 884 890
1271 3 884 885 891
1272 2 965 964 967
1273 2 965 964 968
1274 2 965 964 969
1275 1 967 964 968
1276 1 967 964 969
1277 1 968 964 969
1278 5 964 965 966
1279 4 964 965 970
1280 4 964 965 971
1281 7 966 965 970
1282 7 966 965 971
1283 6 970 965 971
1284 2 1361 1360 1363
1285 2 1361 1360 1364
1286 2 1361 1360 1365
1287 1 1363 1360 1364
1288 1 1363 1360 1365
1289 1 1364 1360 1365
1290 2 1370 1369 1372
1291 2 1370 1369 1373
1292 2 1370 1369 1374
1293 1 1372 1369 1373
1294 1 1372 1369 1374
1295 1 1373 1369 1374
1296 2 1739 1738 1741
1297 2 1739 1738 1742
1298 2 1739 1738 1743
1299 1 1741 1738 1742
1300 1 1741 1738 1743
1301 1 1742 1738 1743
1302 5 1738 1739 1740
1303 4 1738 1739 1744
1304 4 1738 1739 1745
1305 7 1740 1739 1744
1306 7 1740 1739 1745
1307 6 1744 1739 1745
1308 3 1739 1740 1746
1309 2 128 127 130
1310 2 128 127 131
1311 2 128 127 132
1312 1 130 127 131
1313 1 130 127 132
1314 1 131 127 132
1315 2 218 217 220
1316 2 218 217 221
1317 2 218 217 222
1318 1 220 217 221
1319 1 220 217 222
1320 1 221 217 222
1321 3 1361 1362 1368
1322 3 218 219 225
1323 5 1126 1127 1128
1324 4 1126 1127 1132
1325 4 1126 1127 1133
1326 7 1128 1127 1132
1327 7 1128 1127 1133
1328 6 1132 1127 1133
1329 5 874 875 876
1330 4 874 875 880
1331 4 874 875 881
1332 7 876 875 880
1333 7 876 875 881
1334 6 880 875 881
1335 2 1172 1171 1174
1336 2 1172 1171 1175
1337 2 1172 1171 1176
1338 1 1174 1171 1175
1339 1 1174 1171 1176
1340 1 1175 1171 1176
1341 5 1171 1172 1173
1342 4 1171 1172 1177
1343 4 1171 1172 1178
1344 7 1173 1172 1177
1345 7 1173 1172 1178
1346 6 1177 1172 1178
1347 3 1172 1173 1179
1348 2 1325 1324 1327
1349 2 1325 1324 1328
1350 2 1325 1324 1329
1351 1 1327 1324 1328
1352 1 1327 1324 1329
1353 1 1328 1324 1329
1354 5 1360 1361 1362
1355 4 1360 1361 1366
1356 4 1360 1361 1367
1357 7 1362 1361 1366
1358 7 1362 1361 1367
1359 6 1366 1361 1367
1360 3 1109 1110 1116
1361 2 2108 2107 2110
1362 2 2108 2107 2111
1363 2 2108 2107 2112
1364 1 2110 2107 2111
1365 1 2110 2107 2112
1366 1 2111 2107 2112
1367 5 2152 2153 2154
1368 4 2152 2153 2158
1369 4 2152 2153 2159
1370 7 2154 2153 2158
1371 7 2154 2153 2159
1372 6 2158 2153 2159
1373 2 20 19 22
1374 2 20 19 23
1375 2 20 19 24
1376 1 22 19 23
1377 1 22 19 24
1378 1 23 19 24
1379 5 19 20 21
1380 4 19 20 25
1381 4 19 20 26
1382 7 21 20 25
1383 7 21 20 26
1384 6 25 20 26
1385 5 1153 1154 1155
1386 4 1153 1154 1159
1387 4 1153 1154 1160
1388 7 1155 1154 1159
1389 7 1155 1154 1160
1390 6 1159 1154 1160
1391 2 281 280 283
1392 2 281 280 284
1393 2 281 280 285
1394 1 283 280 284
1395 1 283 280 285
1396 1 284 280 285
1397 5 280 281 282
1398 4 280 281 286
1399 4 280 281 287
1400 7 282 281 286
1401 7 282 281 287
1402 6 286 281 287
1403 2 344 343 346
1404 2 344 343 347
1405 2 344 343 348
1406 1 346 343 347
1407 1 346 343 348
1408 1 347 343 348
1409 5 343 344 345
1410 4 343 344 349
1411 4 343 344 350
1412 7 345 344 349
1413 7 345 344 350
1414 6 349 344 350
1415 3 344 345 351
1416 3 2 3 9
1417 2 398 397 400
1418 2 398 397 401
1419 2 398 397 402
1420 1 400 397 401
1421 1 400 397 402
1422 1 401 397 402
1423 5 397 398 399
1424 4 397 398 403
1425 4 397 398 404
1426 7 399 398 403
1427 7 399 398 404
1428 6 403 398 404
1429 3 398 399 405
1430 2 632 631 634
1431 2 632 631 635
1432 2 632 631 636
1433 1 634 631 635
1434 1 634 631 636
1435 1 635 631 636
1436 5 631 632 633
1437 4 631 632 637
1438 4 631 632 638
1439 7 633 632 637
1440 7 633 632 638
1441 6 637 632 638
1442 3 632 633 639
1443 3 1694 1695 1701
1444 2 1649 1648 1651
1445 2 1649 1648 1652
1446 2 1649 1648 1653
1447 1 1651 1648 1652
1448 1 1651 1648 1653
1449 1 1652 1648 1653
1450 5 1648 1649 1650
1451 4 1648 1649 1654
1452 4 1648 1649 1655
1453 7 1650 1649 1654
1454 7 1650 1649 1655
1455 6 1654 1649 1655
1456 3 1649 1650 1656
1457 2 209 208 211
1458 2 209 208 212
1459 2 209 208 213
1460 1 211 208 212
1461 1 211 208 213
1462 1 212 208 213
1463 3 353 354 360
1464 5 2170 2171 2172
1465 4 2170 2171 2176
1466 4 2170 2171 2177
1467 7 2172 2171 2176
1468 7 2172 2171 2177
1469 6 2176 2171 2177
1470 5 1252 1253 1254
1471 4 1252 1253 1258
1472 4 1252 1253 1259
1473 7 1254 1253 1258
1474 7 1254 1253 1259
1475 6 1258 1253 1259
1476 3 1253 1254 1260
1477 3 902 903 909
1478 5 1279 1280 1281
1479 4 1279 1280 1285
1480 4 1279 1280 1286
1481 7 1281 1280 1285
1482 7 1281 1280 1286
1483 6 1285 1280 1286
1484 3 1280 1281 1287
1485 2 1352 1351 1354
1486 2 1352 1351 1355
1487 2 1352 1351 1356
1488 1 1354 1351 1355
1489 1 1354 1351 1356
1490 1 1355 1351 1356
1491 5 1351 1352 1353
1492 4 1351 1352 1357
1493 4 1351 1352 1358
1494 7 1353 1352 1357
1495 7 1353 1352 1358
1496 6 1357 1352 1358
1497 3 1352 1353 1359
1498 2 1424 1423 1426
1499 2 1424 1423 1427
1500 2 1424 1423 1428
1501 1 1426 1423 1427
1502 1 1426 1423 1428
1503 1 1427 1423 1428
1504 2 1775 1774 1777
1505 2 1775 1774 1778
1506 2 1775 1774 1779
1507 1 1777 1774 1778
1508 1 1777 1774 1779
1509 1 1778 1774 1779
1510 5 1774 1775 1776
1511 4 1774 1775 1780
1512 4 1774 1775 1781
1513 7 1776 1775 1780
1514 7 1776 1775 1781
1515 6 1780 1775 1781
1516 3 1775 1776 1782
1517 2 1964 1963 1966
1518 2 1964 1963 1967
1519 2 1964 1963 1968
1520 1 1966 1963 1967
1521 1 1966 1963 1968
1522 1 1967 1963 1968
1523 5 1981 1982 1983
1524 4 1981 1982 1987
1525 4 1981 1982 1988
1526 7 1983 1982 1987
1527 7 1983 1982 1988
1528 6 1987 1982 1988
1529 3 2207 2208 2214
1530 2 164 163 166
1531 2 164 163 167
1532 2 164 163 168
1533 1 166 163 167
1534 1 166 163 168
1535 1 167 163 168
1536 5 163 164 165
1537 4 163 164 169
1538 4 163 164 170
1539 7 165 164 169
1540 7 165 164 170
1541 6 169 164 170
1542 3 164 165 171
1543 3 281 282 288
1544 2 1136 1135 1138
1545 2 1136 1135 1139
1546 2 1136 1135 1140
1547 1 1138 1135 1139
1548 1 1138 1135 1140
1549 1 1139 1135 1140
1550 5 1135 1136 1137
1551 4 1135 1136 1141
1552 4 1135 1136 1142
1553 7 1137 1136 1141
1554 7 1137 1136 1142
1555 6 1141 1136 1142
1556 3 1136 1137 1143
1557 2 2144 2143 2146
1558 2 2144 2143 2147
1559 2 2144 2143 2148
1560 1 2146 2143 2147
1561 1 2146 2143 2148
1562 1 2147 2143 2148
1563 5 2143 2144 2145
1564 4 2143 2144 2149
1565 4 2143 2144 2150
1566 7 2145 2144 2149
1567 7 2145 2144 2150
1568 6 2149 2144 2150
1569 3 2144 2145 2151
1570 3 1964 1965 1971
1571 2 353 352 355
1572 2 353 352 356
1573 2 353 352 357
1574 1 355 352 356
1575 1 355 352 357
1576 1 356 352 357
1577 5 352 353 354
1578 4 352 353 358
1579 4 352 353 359
1580 7 354 353 358
1581 7 354 353 359
1582 6 358 353 359
1583 5 1 2 3
1584 4 1 2 7
1585 4 1 2 8
1586 7 3 2 7
1587 7 3 2 8
1588 6 7 2 8
1589 5 568 569 570
1590 4 568 569 574
1591 4 568 569 575
1592 7 570 569 574
1593 7 570 569 575
1594 6 574 569 575
1595 2 1154 1153 1156
1596 2 1154 1153 1157
1597 2 1154 1153 1158
1598 1 1156 1153 1157
1599 1 1156 1153 1158
1600 1 1157 1153 1158
1601 5 1963 1964 1965
1602 4 1963 1964 1969
1603 4 1963 1964 1970
1604 7 1965 1964 1969
1605 7 1965 1964 1970
1606 6 1969 1964 1970
1607 2 1280 1279 1282
1608 2 1280 1279 1283
1609 2 1280 1279 1284
1610 1 1282 1279 1283
1611 1 1282 1279 1284
1612 1 1283 1279 1284
1613 2 1388 1387 1390
1614 2 1388 1387 1391
1615 2 1388 1387 1392
1616 1 1390 1387 1391
1617 1 1390 1387 1392
1618 1 1391 1387 1392
1619 5 1387 1388 1389
1620 4 1387 1388 1393
1621 4 1387 1388 1394
1622 7 1389 1388 1393
1623 7 1389 1388 1394
1624 6 1393 1388 1394
1625 3 1388 1389 1395
1626 3 1982 1983 1989
1627 2 2171 2170 2173
1628 2 2171 2170 2174
1629 2 2171 2170 2175
1630 1 2173 2170 2174
1631 1 2173 2170 2175
1632 1 2174 2170 2175
1633 5 2161 2162 2163
1634 4 2161 2162 2167
1635 4 2161 2162 2168
1636 7 2163 2162 2167
1637 7 2163 2162 2168
1638 6 2167 2162 2168
1639 2 362 361 364
1640 2 362 361 365
1641 2 362 361 366
1642 1 364 361 365
1643 1 364 361 366
1644 1 365 361 366
1645 5 361 362 363
1646 4 361 362 367
1647 4 361 362 368
1648 7 363 362 367
1649 7 363 362 368
1650 6 367 362 368
1651 2 389 388 391
1652 2 389 388 392
1653 2 389 388 393
1654 1 391 388 392
1655 1 391 388 393
1656 1 392 388 393
1657 5 388 389 390
1658 4 388 389 394
1659 4 388 389 395
1660 7 390 389 394
1661 7 390 389 395
1662 6 394 389 395
1663 3 389 390 396
1664 5 505 506 507
1665 4 505 506 511
1666 4 505 506 512
1667 7 507 506 511
1668 7 507 506 512
1669 6 511 506 512
1670 3 506 507 513
1671 5 1711 1712 1713
1672 4 1711 1712 1717
1673 4 1711 1712 1718
1674 7 1713 1712 1717
1675 7 1713 1712 1718
1676 6 1717 1712 1718
1677 2 551 550 553
1678 2 551 550 554
1679 2 551 550 555
1680 1 553 550 554
1681 1 553 550 555
1682 1 554 550 555
1683 5 550 551 552
1684 4 550 551 556
1685 4 550 551 557
1686 7 552 551 556
1687 7 552 551 557
1688 6 556 551 557
1689 3 551 552 558
1690 3 920 921 927
1691 2 2045 2044 2047
1692 2 2045 2044 2048
1693 2 2045 2044 2049
1694 1 2047 2044 2048
1695 1 2047 2044 2049
1696 1 2048 2044 2049
1697 5 2044 2045 2046
1698 4 2044 2045 2050
1699 4 2044 2045 2051
1700 7 2046 2045 2050
1701 7 2046 2045 2051
1702 6 2050 2045 2051
1703 3 2045 2046 2052
1704 2 272 271 274
1705 2 272 271 275
1706 2 272 271 276
1707 1 274 271 275
1708 1 274 271 276
1709 1 275 271 276
1710 5 271 272 273
1711 4 271 272 277
1712 4 271 272 278
1713 7 273 272 277
1714 7 273 272 278
1715 6 277 272 278
1716 3 272 273 279
1717 3 1712 1713 1719
1718 2 524 523 526
1719 2 524 523 527
1720 2 524 523 528
1721 1 526 523 527
1722 1 526 523 528
1723 1 527 523 528
1724 5 523 524 525
1725 4 523 524 529
1726 4 523 524 530
1727 7 525 524 529
1728 7 525 524 530
1729 6 529 524 530
1730 3 524 525 531
1731 2 1046 1045 1048
1732 2 1046 1045 1049
1733 2 1046 1045 1050
1734 1 1048 1045 1049
1735 1 1048 1045 1050
1736 1 1049 1045 1050
1737 5 1045 1046 1047
1738 4 1045 1046 1051
1739 4 1045 1046 1052
1740 7 1047 1046 1051
1741 7 1047 1046 1052
1742 6 1051 1046 1052
1743 2 1685 1684 1687
1744 2 1685 1684 1688
1745 2 1685 1684 1689
1746 1 1687 1684 1688
1747 1 1687 1684 1689
1748 1 1688 1684 1689
1749 5 1684 1685 1686
1750 4 1684 1685 1690
1751 4 1684 1685 1691
1752 7 1686 1685 1690
1753 7 1686 1685 1691
1754 6 1690 1685 1691
1755 3 1685 1686 1692
1756 2 2180 2179 2182
1757 2 2180 2179 2183
1758 2 2180 2179 2184
1759 1 2182 2179 2183
1760 1 2182 2179 2184
1761 1 2183 2179 2184
1762 5 28 29 30
1763 4 28 29 34
1764 4 28 29 35
1765 7 30 29 34
1766 7 30 29 35
1767 6 34 29 35
1768 3 29 30 36
1769 3 461 462 468
1770 2 614 613 616
1771 2 614 613 617
1772 2 614 613 618
1773 1 616 613 617
1774 1 616 613 618
1775 1 617 613 618
1776 5 613 614 615
1777 4 613 614 619
1778 4 613 614 620
1779 7 615 614 619
1780 7 615 614 620
1781 6 619 614 620
1782 3 614 615 621
1783 2 1712 1711 1714
1784 2 1712 1711 1715
1785 2 1712 1711 1716
1786 1 1714 1711 1715
1787 1 1714 1711 1716
1788 1 1715 1711 1716
1789 5 856 857 858
1790 4 856 857 862
1791 4 856 857 863
1792 7 858 857 862
1793 7 858 857 863
1794 6 862 857 863
1795 3 857 858 864
1796 5 919 920 921
1797 4 919 920 925
1798 4 919 920 926
1799 7 921 920 925
1800 7 921 920 926
1801 6 925 920 926
1802 5 460 461 462
1803 4 460 461 466
1804 4 460 461 467
1805 7 462 461 466
1806 7 462 461 467
1807 6 466 461 467
1808 3 2027 2028 2034
1809 5 2179 2180 2181
1810 4 2179 2180 2185
1811 4 2179 2180 2186
1812 7 2181 2180 2185
1813 7 2181 2180 2186
1814 6 2185 2180 2186
1815 5 1585 1586 1587
1816 4 1585 1586 1591
1817 4 1585 1586 1592
1818 7 1587 1586 1591
1819 7 1587 1586 1592
1820 6 1591 1586 1592
1821 3 1586 1587 1593
1822 2 1703 1702 1705
1823 2 1703 1702 1706
1824 2 1703 1702 1707
1825 1 1705 1702 1706
1826 1 1705 1702 1707
1827 1 1706 1702 1707
1828 2 1892 1891 1894
1829 2 1892 1891 1895
1830 2 1892 1891 1896
1831 1 1894 1891 1895
1832 1 1894 1891 1896
1833 1 1895 1891 1896
1834 5 1891 1892 1893
1835 4 1891 1892 1897
1836 4 1891 1892 1898
1837 7 1893 1892 1897
1838 7 1893 1892 1898
1839 6 1897 1892 1898
1840 3 1892 1893 1899
1841 2 110 109 112
1842 2 110 109 113
1843 2 110 109 114
1844 1 112 109 113
1845 1 112 109 114
1846 1 113 109 114
1847 5 109 110 111
1848 4 109 110 115
1849 4 109 110 116
1850 7 111 110 115
1851 7 111 110 116
1852 6 115 110 116
1853 3 110 111 117
1854 2 407 406 409
1855 2 407 406 410
1856 2 407 406 411
1857 1 409 406 410
1858 1 409 406 411
1859 1 410 406 411
1860 5 406 407 408
1861 4 406 407 412
1862 4 406 407 413
1863 7 408 407 412
1864 7 408 407 413
1865 6 412 407 413
1866 3 407 408 414
1867 2 1334 1333 1336
1868 2 1334 1333 1337
1869 2 1334 1333 1338
1870 1 1336 1333 1337
1871 1 1336 1333 1338
1872 1 1337 1333 1338
1873 2 1586 1585 1588
1874 2 1586 1585 1589
1875 2 1586 1585 1590
1876 1 1588 1585 1589
1877 1 1588 1585 1590
1878 1 1589 1585 1590
1879 5 1333 1334 1335
1880 4 1333 1334 1339
1881 4 1333 1334 1340
1882 7 1335 1334 1339
1883 7 1335 1334 1340
1884 6 1339 1334 1340
1885 2 1748 1747 1750
1886 2 1748 1747 1751
1887 2 1748 1747 1752
1888 1 1750 1747 1751
1889 1 1750 1747 1752
1890 1 1751 1747 1752
1891 5 1747 1748 1749
1892 4 1747 1748 1753
1893 4 1747 1748 1754
1894 7 1749 1748 1753
1895 7 1749 1748 1754
1896 6 1753 1748 1754
1897 3 1748 1749 1755
1898 2 29 28 31
1899 2 29 28 32
1900 2 29 28 33
1901 1 31 28 32
1902 1 31 28 33
1903 1 32 28 33
1904 2 2009 2008 2011
1905 2 2009 2008 2012
1906 2 2009 2008 2013
1907 1 2011 2008 2012
1908 1 2011 2008 2013
1909 1 2012 2008 2013
1910 5 2008 2009 2010
1911 4 2008 2009 2014
1912 4 2008 2009 2015
1913 7 2010 2009 2014
1914 7 2010 2009 2015
1915 6 2014 2009 2015
1916 3 2009 2010 2016
1917 2 2027 2026 2029
1918 2 2027 2026 2030
1919 2 2027 2026 2031
1920 1 2029 2026 2030
1921 1 2029 2026 2031
1922 1 2030 2026 2031
1923 5 2026 2027 2028
1924 4 2026 2027 2032
1925 4 2026 2027 2033
1926 7 2028 2027 2032
1927 7 2028 2027 2033
1928 6 2032 2027 2033
1929 2 920 919 922
1930 2 920 919 923
1931 2 920 919 924
1932 1 922 919 923
1933 1 922 919 924
1934 1 923 919 924
1935 2 506 505 508
1936 2 506 505 509
1937 2 506 505 510
1938 1 508 505 509
1939 1 508 505 510
1940 1 509 505 510
1941 2 155 154 157
1942 2 155 154 158
1943 2 155 154 159
1944 1 157 154 158
1945 1 157 154 159
1946 1 158 154 159
1947 5 154 155 156
1948 4 154 155 160
1949 4 154 155 161
1950 7 156 155 160
1951 7 156 155 161
1952 6 160 155 161
1953 3 155 156 162
1954 5 487 488 489
1955 4 487 488 493
1956 4 487 488 494
1957 7 489 488 493
1958 7 489 488 494
1959 6 493 488 494
1960 3 488 489 495
1961 3 2000 2001 2007
1962 3 1766 1767 1773
1963 2 650 649 652
1964 2 650 649 653
1965 2 650 649 654
1966 1 652 649 653
1967 1 652 649 654
1968 1 653 649 654
1969 5 649 650 651
1970 4 649 650 655
1971 4 649 650 656
1972 7 651 650 655
1973 7 651 650 656
1974 6 655 650 656
1975 3 650 651 657
1976 2 839 838 841
1977 2 839 838 842
1978 2 839 838 843
1979 1 841 838 842
1980 1 841 838 843
1981 1 842 838 843
1982 5 838 839 840
1983 4 838 839 844
1984 4 838 839 845
1985 7 840 839 844
1986 7 840 839 845
1987 6 844 839 845
1988 3 839 840 846
1989 3 1829 1830 1836
1990 2 866 865 868
1991 2 866 865 869
1992 2 866 865 870
1993 1 868 865 869
1994 1 868 865 870
1995 1 869 865 870
1996 5 865 866 867
1997 4 865 866 871
1998 4 865 866 872
1999 7 867 866 871
2000 7 867 866 872
2001 6 871 866 872
2002 3 848 849 855
2003 2 2126 2125 2128
2004 2 2126 2125 2129
2005 2 2126 2125 2130
2006 1 2128 2125 2129
2007 1 2128 2125 2130
2008 1 2129 2125 2130
2009 2 821 820 823
2010 2 821 820 824
2011 2 821 820 825
2012 1 823 820 824
2013 1 823 820 825
2014 1 824 820 825
2015 5 820 821 822
2016 4 820 821 826
2017 4 820 821 827
2018 7 822 821 826
2019 7 822 821 827
2020 6 826 821 827
2021 3 821 822 828
2022 2 929 928 931
2023 2 929 928 932
2024 2 929 928 933
2025 1 931 928 932
2026 1 931 928 933
2027 1 932 928 933
2028 5 928 929 930
2029 4 928 929 934
2030 4 928 929 935
2031 7 930 929 934
2032 7 930 929 935
2033 6 934 929 935
2034 3 929 930 936
2035 2 1505 1504 1507
2036 2 1505 1504 1508
2037 2 1505 1504 1509
2038 1 1507 1504 1508
2039 1 1507 1504 1509
2040 1 1508 1504 1509
2041 5 1504 1505 1506
2042 4 1504 1505 1510
2043 4 1504 1505 1511
2044 7 1506 1505 1510
2045 7 1506 1505 1511
2046 6 1510 1505 1511
2047 3 1505 1506 1512
2048 2 1658 1657 1660
2049 2 1658 1657 1661
2050 2 1658 1657 1662
2051 1 1660 1657 1661
2052 1 1660 1657 1662
2053 1 1661 1657 1662
2054 5 1765 1766 1767
2055 4 1765 1766 1771
2056 4 1765 1766 1772
2057 7 1767 1766 1771
2058 7 1767 1766 1772
2059 6 1771 1766 1772
2060 5 1027 1028 1029
2061 4 1027 1028 1033
2062 4 1027 1028 1034
2063 7 1029 1028 1033
2064 7 1029 1028 1034
2065 6 1033 1028 1034
2066 5 847 848 849
2067 4 847 848 853
2068 4 847 848 854
2069 7 849 848 853
2070 7 849 848 854
2071 6 853 848 854
2072 3 2180 2181 2187
2073 5 199 200 201
2074 4 199 200 205
2075 4 199 200 206
2076 7 201 200 205
2077 7 201 200 206
2078 6 205 200 206
2079 3 200 201 207
2080 2 911 910 913
2081 2 911 910 914
2082 2 911 910 915
2083 1 913 910 914
2084 1 913 910 915
2085 1 914 910 915
2086 5 910 911 912
2087 4 910 911 916
2088 4 910 911 917
2089 7 912 911 916
2090 7 912 911 917
2091 6 916 911 917
2092 3 911 912 918
2093 2 1766 1765 1768
2094 2 1766 1765 1769
2095 2 1766 1765 1770
2096 1 1768 1765 1769
2097 1 1768 1765 1770
2098 1 1769 1765 1770
2099 5 946 947 948
2100 4 946 947 952
2101 4 946 947 953
2102 7 948 947 952
2103 7 948 947 953
2104 6 952 947 953
2105 3 1334 1335 1341
2106 2 1028 1027 1030
2107 2 1028 1027 1031
2108 2 1028 1027 1032
2109 1 1030 1027 1031
2110 1 1030 1027 1032
2111 1 1031 1027 1032
2112 2 1730 1729 1732
2113 2 1730 1729 1733
2114 2 1730 1729 1734
2115 1 1732 1729 1733
2116 1 1732 1729 1734
2117 1 1733 1729 1734
2118 5 1729 1730 1731
2119 4 1729 1730 1735
2120 4 1729 1730 1736
2121 7 1731 1730 1735
2122 7 1731 1730 1736
2123 6 1735 1730 1736
2124 3 1730 1731 1737
2125 2 2000 1999 2002
2126 2 2000 1999 2003
2127 2 2000 1999 2004
2128 1 2002 1999 2003
2129 1 2002 1999 2004
2130 1 2003 1999 2004
2131 2 1757 1756 1759
2132 2 1757 1756 1760
2133 2 1757 1756 1761
2134 1 1759 1756 1760
2135 1 1759 1756 1761
2136 1 1760 1756 1761
2137 5 1756 1757 1758
2138 4 1756 1757 1762
2139 4 1756 1757 1763
2140 7 1758 1757 1762
2141 7 1758 1757 1763
2142 6 1762 1757 1763
2143 3 1757 1758 1764
2144 5 2125 2126 2127
2145 4 2125 2126 2131
2146 4 2125 2126 2132
2147 7 2127 2126 2131
2148 7 2127 2126 2132
2149 6 2131 2126 2132
2150 2 2072 2071 2074
2151 2 2072 2071 2075
2152 2 2072 2071 2076
2153 1 2074 2071 2075
2154 1 2074 2071 2076
2155 1 2075 2071 2076
2156 5 2071 2072 2073
2157 4 2071 2072 2077
2158 4 2071 2072 2078
2159 7 2073 2072 2077
2160 7 2073 2072 2078
2161 6 2077 2072 2078
2162 3 2072 2073 2079
2163 2 2117 2116 2119
2164 2 2117 2116 2120
2165 2 2117 2116 2121
2166 1 2119 2116 2120
2167 1 2119 2116 2121
2168 1 2120 2116 2121
2169 5 2116 2117 2118
2170 4 2116 2117 2122
2171 4 2116 2117 2123
2172 7 2118 2117 2122
2173 7 2118 2117 2123
2174 6 2122 2117 2123
2175 3 2117 2118 2124
2176 3 2126 2127 2133
2177 2 74 73 76
2178 2 74 73 77
2179 2 74 73 78
2180 1 76 73 77
2181 1 76 73 78
2182 1 77 73 78
2183 5 73 74 75
2184 4 73 74 79
2185 4 73 74 80
2186 7 75 74 79
2187 7 75 74 80
2188 6 79 74 80
2189 5 100 101 102
2190 4 100 101 106
2191 4 100 101 107
2192 7 102 101 106
2193 7 102 101 107
2194 6 106 101 107
2195 3 101 102 108
2196 2 686 685 688
2197 2 686 685 689
2198 2 686 685 690
2199 1 688 685 689
2200 1 688 685 690
2201 1 689 685 690
2202 5 685 686 687
2203 4 685 686 691
2204 4 685 686 692
2205 7 687 686 691
2206 7 687 686 692
2207 6 691 686 692
2208 3 686 687 693
2209 3 362 363 369
2210 2 1865 1864 1867
2211 2 1865 1864 1868
2212 2 1865 1864 1869
2213 1 1867 1864 1868
2214 1 1867 1864 1869
2215 1 1868 1864 1869
2216 2 812 811 814
2217 2 812 811 815
2218 2 812 811 816
2219 1 814 811 815
2220 1 814 811 816
2221 1 815 811 816
2222 5 1657 1658 1659
2223 4 1657 1658 1663
2224 4 1657 1658 1664
2225 7 1659 1658 1663
2226 7 1659 1658 1664
2227 6 1663 1658 1664
2228 3 1658 1659 1665
2229 5 1999 2000 2001
2230 4 1999 2000 2005
2231 4 1999 2000 2006
2232 7 2001 2000 2005
2233 7 2001 2000 2006
2234 6 2005 2000 2006
2235 3 866 867 873
2236 2 848 847 850
2237 2 848 847 851
2238 2 848 847 852
2239 1 850 847 851
2240 1 850 847 852
2241 1 851 847 852
2242 2 623 622 625
2243 2 623 622 626
2244 2 623 622 627
2245 1 625 622 626
2246 1 625 622 627
2247 1 626 622 627
2248 5 622 623 624
2249 4 622 623 628
2250 4 622 623 629
2251 7 624 623 628
2252 7 624 623 629
2253 6 628 623 629
2254 2 1622 1621 1624
2255 2 1622 1621 1625
2256 2 1622 1621 1626
2257 1 1624 1621 1625
2258 1 1624 1621 1626
2259 1 1625 1621 1626
2260 2 695 694 697
2261 2 695 694 698
2262 2 695 694 699
2263 1 697 694 698
2264 1 697 694 699
2265 1 698 694 699
2266 5 694 695 696
2267 4 694 695 700
2268 4 694 695 701
2269 7 696 695 700
2270 7 696 695 701
2271 6 700 695 701
2272 3 695 696 702
2273 5 1621 1622 1623
2274 4 1621 1622 1627
2275 4 1621 1622 1628
2276 7 1623 1622 1627
2277 7 1623 1622 1628
2278 6 1627 1622 1628
2279 2 893 892 895
2280 2 893 892 896
2281 2 893 892 897
2282 1 895 892 896
2283 1 895 892 897
2284 1 896 892 897
2285 5 892 893 894
2286 4 892 893 898
2287 4 892 893 899
2288 7 894 893 898
2289 7 894 893 899
2290 6 898 893 899
2291 3 623 624 630
2292 2 1163 1162 1165
2293 2 1163 1162 1166
2294 2 1163 1162 1167
2295 1 1165 1162 1166
2296 1 1165 1162 1167
2297 1 1166 1162 1167
2298 2 1667 1666 1669
2299 2 1667 1666 1670
2300 2 1667 1666 1671
2301 1 1669 1666 1670
2302 1 1669 1666 1671
2303 1 1670 1666 1671
2304 5 1666 1667 1668
2305 4 1666 1667 1672
2306 4 1666 1667 1673
2307 7 1668 1667 1672
2308 7 1668 1667 1673
2309 6 1672 1667 1673
2310 3 1667 1668 1674
2311 3 596 597 603
2312 2 1100 1099 1102
2313 2 1100 1099 1103
2314 2 1100 1099 1104
2315 1 1102 1099 1103
2316 1 1102 1099 1104
2317 1 1103 1099 1104
2318 2 1235 1234 1237
2319 2 1235 1234 1238
2320 2 1235 1234 1239
2321 1 1237 1234 1238
2322 1 1237 1234 1239
2323 1 1238 1234 1239
2324 5 1234 1235 1236
2325 4 1234 1235 1240
2326 4 1234 1235 1241
2327 7 1236 1235 1240
2328 7 1236 1235 1241
2329 6 1240 1235 1241
2330 3 1235 1236 1242
2331 2 1640 1639 1642
2332 2 1640 1639 1643
2333 2 1640 1639 1644
2334 1 1642 1639 1643
2335 1 1642 1639 1644
2336 1 1643 1639 1644
2337 5 1639 1640 1641
2338 4 1639 1640 1645
2339 4 1639 1640 1646
2340 7 1641 1640 1645
2341 7 1641 1640 1646
2342 6 1645 1640 1646
2343 3 1640 1641 1647
2344 2 92 91 94
2345 2 92 91 95
2346 2 92 91 96
2347 1 94 91 95
2348 1 94 91 96
2349 1 95 91 96
2350 5 1864 1865 1866
2351 4 1864 1865 1870
2352 4 1864 1865 1871
2353 7 1866 1865 1870
2354 7 1866 1865 1871
2355 6 1870 1865 1871
2356 3 1865 1866 1872
2357 5 91 92 93
2358 4 91 92 97
2359 4 91 92 98
2360 7 93 92 97
2361 7 93 92 98
2362 6 97 92 98
2363 2 173 172 175
2364 2 173 172 176
2365 2 173 172 177
2366 1 175 172 176
2367 1 175 172 177
2368 1 176 172 177
2369 5 172 173 174
2370 4 172 173 178
2371 4 172 173 179
2372 7 174 173 178
2373 7 174 173 179
2374 6 178 173 179
2375 3 173 174 180
2376 2 317 316 319
2377 2 317 316 320
2378 2 317 316 321
2379 1 319 316 320
2380 1 319 316 321
2381 1 320 316 321
2382 5 316 317 318
2383 4 316 317 322
2384 4 316 317 323
2385 7 318 317 322
2386 7 318 317 323
2387 6 322 317 323
2388 3 317 318 324
2389 2 740 739 742
2390 2 740 739 743
2391 2 740 739 744
2392 1 742 739 743
2393 1 742 739 744
2394 1 743 739 744
2395 5 739 740 741
2396 4 739 740 745
2397 4 739 740 746
2398 7 741 740 745
2399 7 741 740 746
2400 6 745 740 746
2401 3 740 741 747
2402 2 1064 1063 1066
2403 2 1064 1063 1067
2404 2 1064 1063 1068
2405 1 1066 1063 1067
2406 1 1066 1063 1068
2407 1 1067 1063 1068
2408 5 1063 1064 1065
2409 4 1063 1064 1069
2410 4 1063 1064 1070
2411 7 1065 1064 1069
2412 7 1065 1064 1070
2413 6 1069 1064 1070
2414 2 1082 1081 1084
2415 2 1082 1081 1085
2416 2 1082 1081 1086
2417 1 1084 1081 1085
2418 1 1084 1081 1086
2419 1 1085 1081 1086
2420 5 1081 1082 1083
2421 4 1081 1082 1087
2422 4 1081 1082 1088
2423 7 1083 1082 1087
2424 7 1083 1082 1088
2425 6 1087 1082 1088
2426 3 1082 1083 1089
2427 3 893 894 900
2428 3 1622 1623 1629
2429 2 38 37 40
2430 2 38 37 41
2431 2 38 37 42
2432 1 40 37 41
2433 1 40 37 42
2434 1 41 37 42
2435 5 37 38 39
2436 4 37 38 43
2437 4 37 38 44
2438 7 39 38 43
2439 7 39 38 44
2440 6 43 38 44
2441 3 38 39 45
2442 3 92 93 99
2443 2 596 595 598
2444 2 596 595 599
2445 2 596 595 600
2446 1 598 595 599
2447 1 598 595 600
2448 1 599 595 600
2449 5 595 596 597
2450 4 595 596 601
2451 4 595 596 602
2452 7 597 596 601
2453 7 597 596 602
2454 6 601 596 602
2455 5 811 812 813
2456 4 811 812 817
2457 4 811 812 818
2458 7 813 812 817
2459 7 813 812 818
2460 6 817 812 818
2461 3 812 813 819
2462 2 1406 1405 1408
2463 2 1406 1405 1409
2464 2 1406 1405 1410
2465 1 1408 1405 1409
2466 1 1408 1405 1410
2467 1 1409 1405 1410
2468 5 1099 1100 1101
2469 4 1099 1100 1105
2470 4 1099 1100 1106
2471 7 1101 1100 1105
2472 7 1101 1100 1106
2473 6 1105 1100 1106
2474 3 1100 1101 1107
2475 5 1297 1298 1299
2476 4 1297 1298 1303
2477 4 1297 1298 1304
2478 7 1299 1298 1303
2479 7 1299 1298 1304
2480 6 1303 1298 1304
2481 3 1298 1299 1305
2482 2 2054 2053 2056
2483 2 2054 2053 2057
2484 2 2054 2053 2058
2485 1 2056 2053 2057
2486 1 2056 2053 2058
2487 1 2057 2053 2058
2488 5 2053 2054 2055
2489 4 2053 2054 2059
2490 4 2053 2054 2060
2491 7 2055 2054 2059
2492 7 2055 2054 2060
2493 6 2059 2054 2060
2494 3 2054 2055 2061
2495 2 488 487 490
2496 2 488 487 491
2497 2 488 487 492
2498 1 490 487 491
2499 1 490 487 492
2500 1 491 487 492
2501 2 1298 1297 1300
2502 2 1298 1297 1301
2503 2 1298 1297 1302
2504 1 1300 1297 1301
2505 1 1300 1297 1302
2506 1 1301 1297 1302
2507 2 1532 1531 1534
2508 2 1532 1531 1535
2509 2 1532 1531 1536
2510 1 1534 1531 1535
2511 1 1534 1531 1536
2512 1 1535 1531 1536
2513 2 1145 1144 1147
2514 2 1145 1144 1148
2515 2 1145 1144 1149
2516 1 1147 1144 1148
2517 1 1147 1144 1149
2518 1 1148 1144 1149
2519 3 956 957 963
2520 2 236 235 238
2521 2 236 235 239
2522 2 236 235 240
2523 1 238 235 239
2524 1 238 235 240
2525 1 239 235 240
2526 2 803 802 805
2527 2 803 802 806
2528 2 803 802 807
2529 1 805 802 806
2530 1 805 802 807
2531 1 806 802 807
2532 2 1019 1018 1021
2533 2 1019 1018 1022
2534 2 1019 1018 1023
2535 1 1021 1018 1022
2536 1 1021 1018 1023
2537 1 1022 1018 1023
2538 2 2135 2134 2137
2539 2 2135 2134 2138
2540 2 2135 2134 2139
2541 1 2137 2134 2138
2542 1 2137 2134 2139
2543 1 2138 2134 2139
2544 5 1702 1703 1704
2545 4 1702 1703 1708
2546 4 1702 1703 1709
2547 7 1704 1703 1708
2548 7 1704 1703 1709
2549 6 1708 1703 1709
2550 5 1090 1091 1092
2551 4 1090 1091 1096
2552 4 1090 1091 1097
2553 7 1092 1091 1096
2554 7 1092 1091 1097
2555 6 1096 1091 1097
2556 3 1091 1092 1098
2557 5 2134 2135 2136
2558 4 2134 2135 2140
2559 4 2134 2135 2141
2560 7 2136 2135 2140
2561 7 2136 2135 2141
2562 6 2140 2135 2141
2563 2 1469 1468 1471
2564 2 1469 1468 1472
2565 2 1469 1468 1473
2566 1 1471 1468 1472
2567 1 1471 1468 1473
2568 1 1472 1468 1473
2569 5 1468 1469 1470
2570 4 1468 1469 1474
2571 4 1468 1469 1475
2572 7 1470 1469 1474
2573 7 1470 1469 1475
2574 6 1474 1469 1475
2575 3 1469 1470 1476
2576 2 1496 1495 1498
2577 2 1496 1495 1499
2578 2 1496 1495 1500
2579 1 1498 1495 1499
2580 1 1498 1495 1500
2581 1 1499 1495 1500
2582 3 326 327 333
2583 3 1703 1704 1710
2584 5 1837 1838 1839
2585 4 1837 1838 1843
2586 4 1837 1838 1844
2587 7 1839 1838 1843
2588 7 1839 1838 1844
2589 6 1843 1838 1844
2590 2 1991 1990 1993
2591 2 1991 1990 1994
2592 2 1991 1990 1995
2593 1 1993 1990 1994
2594 1 1993 1990 1995
2595 1 1994 1990 1995
2596 5 1990 1991 1992
2597 4 1990 1991 1996
2598 4 1990 1991 1997
2599 7 1992 1991 1996
2600 7 1992 1991 1997
2601 6 1996 1991 1997
2602 3 1991 1992 1998
2603 5 235 236 237
2604 4 235 236 241
2605 4 235 236 242
2606 7 237 236 241
2607 7 237 236 242
2608 6 241 236 242
2609 3 236 237 243
2610 5 802 803 804
2611 4 802 803 808
2612 4 802 803 809
2613 7 804 803 808
2614 7 804 803 809
2615 6 808 803 809
2616 3 803 804 810
2617 2 1190 1189 1192
2618 2 1190 1189 1193
2619 2 1190 1189 1194
2620 1 1192 1189 1193
2621 1 1192 1189 1194
2622 1 1193 1189 1194
2623 5 1189 1190 1191
2624 4 1189 1190 1195
2625 4 1189 1190 1196
2626 7 1191 1190 1195
2627 7 1191 1190 1196
2628 6 1195 1190 1196
2629 3 1190 1191 1197
2630 3 1046 1047 1053
2631 5 1441 1442 1443
2632 4 1441 1442 1447
2633 4 1441 1442 1448
2634 7 1443 1442 1447
2635 7 1443 1442 1448
2636 6 1447 1442 1448
2637 3 1442 1443 1449
2638 5 325 326 327
2639 4 325 326 331
2640 4 325 326 332
2641 7 327 326 331
2642 7 327 326 332
2643 6 331 326 332
2644 5 730 731 732
2645 4 730 731 736
2646 4 730 731 737
2647 7 732 731 736
2648 7 732 731 737
2649 6 736 731 737
2650 2 1838 1837 1840
2651 2 1838 1837 1841
2652 2 1838 1837 1842
2653 1 1840 1837 1841
2654 1 1840 1837 1842
2655 1 1841 1837 1842
2656 2 857 856 859
2657 2 857 856 860
2658 2 857 856 861
2659 1 859 856 860
2660 1 859 856 861
2661 1 860 856 861
2662 3 2135 2136 2142
2663 2 83 82 85
2664 2 83 82 86
2665 2 83 82 87
2666 1 85 82 86
2667 1 85 82 87
2668 1 86 82 87
2669 5 82 83 84
2670 4 82 83 88
2671 4 82 83 89
2672 7 84 83 88
2673 7 84 83 89
2674 6 88 83 89
2675 3 83 84 90
2676 2 326 325 328
2677 2 326 325 329
2678 2 326 325 330
2679 1 328 325 329
2680 1 328 325 330
2681 1 329 325 330
2682 5 1495 1496 1497
2683 4 1495 1496 1501
2684 4 1495 1496 1502
2685 7 1497 1496 1501
2686 7 1497 1496 1502
2687 6 1501 1496 1502
2688 3 1496 1497 1503
2689 2 1523 1522 1525
2690 2 1523 1522 1526
2691 2 1523 1522 1527
2692 1 1525 1522 1526
2693 1 1525 1522 1527
2694 1 1526 1522 1527
2695 5 1522 1523 1524
2696 4 1522 1523 1528
2697 4 1522 1523 1529
2698 7 1524 1523 1528
2699 7 1524 1523 1529
2700 6 1528 1523 1529
2701 3 1523 1524 1530
2702 2 1721 1720 1723
2703 2 1721 1720 1724
2704 2 1721 1720 1725
2705 1 1723 1720 1724
2706 1 1723 1720 1725
2707 1 1724 1720 1725
2708 3 758 759 765
2709 2 1055 1054 1057
2710 2 1055 1054 1058
2711 2 1055 1054 1059
2712 1 1057 1054 1058
2713 1 1057 1054 1059
2714 1 1058 1054 1059
2715 5 1054 1055 1056
2716 4 1054 1055 1060
2717 4 1054 1055 1061
2718 7 1056 1055 1060
2719 7 1056 1055 1061
2720 6 1060 1055 1061
2721 3 1055 1056 1062
2722 5 1720 1721 1722
2723 4 1720 1721 1726
2724 4 1720 1721 1727
2725 7 1722 1721 1726
2726 7 1722 1721 1727
2727 6 1726 1721 1727
2728 3 1721 1722 1728
2729 2 263 262 265
2730 2 263 262 266
2731 2 263 262 267
2732 1 265 262 266
2733 1 265 262 267
2734 1 266 262 267
2735 5 1945 1946 1947
2736 4 1945 1946 1951
2737 4 1945 1946 1952
2738 7 1947 1946 1951
2739 7 1947 1946 1952
2740 6 1951 1946 1952
2741 2 290 289 292
2742 2 290 289 293
2743 2 290 289 294
2744 1 292 289 293
2745 1 292 289 294
2746 1 293 289 294
2747 5 289 290 291
2748 4 289 290 295
2749 4 289 290 296
2750 7 291 290 295
2751 7 291 290 296
2752 6 295 290 296
2753 3 290 291 297
2754 3 2063 2064 2070
2755 5 469 470 471
2756 4 469 470 475
2757 4 469 470 476
2758 7 471 470 475
2759 7 471 470 476
2760 6 475 470 476
2761 3 470 471 477
2762 2 515 514 517
2763 2 515 514 518
2764 2 515 514 519
2765 1 517 514 518
2766 1 517 514 519
2767 1 518 514 519
2768 5 514 515 516
2769 4 514 515 520
2770 4 514 515 521
2771 7 516 515 520
2772 7 516 515 521
2773 6 520 515 521
2774 3 515 516 522
2775 2 731 730 733
2776 2 731 730 734
2777 2 731 730 735
2778 1 733 730 734
2779 1 733 730 735
2780 1 734 730 735
2781 5 604 605 606
2782 4 604 605 610
2783 4 604 605 611
2784 7 606 605 610
2785 7 606 605 611
2786 6 610 605 611
2787 3 731 732 738
2788 2 2063 2062 2065
2789 2 2063 2062 2066
2790 2 2063 2062 2067
2791 1 2065 2062 2066
2792 1 2065 2062 2067
2793 1 2066 2062 2067
2794 5 1036 1037 1038
2795 4 1036 1037 1042
2796 4 1036 1037 1043
2797 7 1038 1037 1042
2798 7 1038 1037 1043
2799 6 1042 1037 1043
2800 3 1037 1038 1044
2801 3 74 75 81
2802 5 1180 1181 1182
2803 4 1180 1181 1186
2804 4 1180 1181 1187
2805 7 1182 1181 1186
2806 7 1182 1181 1187
2807 6 1186 1181 1187
2808 3 1181 1182 1188
2809 2 1631 1630 1633
2810 2 1631 1630 1634
2811 2 1631 1630 1635
2812 1 1633 1630 1634
2813 1 1633 1630 1635
2814 1 1634 1630 1635
2815 5 1630 1631 1632
2816 4 1630 1631 1636
2817 4 1630 1631 1637
2818 7 1632 1631 1636
2819 7 1632 1631 1637
2820 6 1636 1631 1637
2821 3 1631 1632 1638
2822 5 1783 1784 1785
2823 4 1783 1784 1789
2824 4 1783 1784 1790
2825 7 1785 1784 1789
2826 7 1785 1784 1790
2827 6 1789 1784 1790
2828 2 2198 2197 2200
2829 2 2198 2197 2201
2830 2 2198 2197 2202
2831 1 2200 2197 2201
2832 1 2200 2197 2202
2833 1 2201 2197 2202
2834 5 2197 2198 2199
2835 4 2197 2198 2203
2836 4 2197 2198 2204
2837 7 2199 2198 2203
2838 7 2199 2198 2204
2839 6 2203 2198 2204
2840 3 2198 2199 2205
2841 2 1181 1180 1183
2842 2 1181 1180 1184
2843 2 1181 1180 1185
2844 1 1183 1180 1184
2845 1 1183 1180 1185
2846 1 1184 1180 1185
2847 3 1883 1884 1890
2848 2 1883 1882 1885
2849 2 1883 1882 1886
2850 2 1883 1882 1887
2851 1 1885 1882 1886
2852 1 1885 1882 1887
2853 1 1886 1882 1887
2854 2 983 982 985
2855 2 983 982 986
2856 2 983 982 987
2857 1 985 982 986
2858 1 985 982 987
2859 1 986 982 987
2860 5 982 983 984
2861 4 982 983 988
2862 4 982 983 989
2863 7 984 983 988
2864 7 984 983 989
2865 6 988 983 989
2866 3 983 984 990
2867 2 1541 1540 1543
2868 2 1541 1540 1544
2869 2 1541 1540 1545
2870 1 1543 1540 1544
2871 1 1543 1540 1545
2872 1 1544 1540 1545
2873 5 1540 1541 1542
2874 4 1540 1541 1546
2875 4 1540 1541 1547
2876 7 1542 1541 1546
2877 7 1542 1541 1547
2878 6 1546 1541 1547
2879 3 1541 1542 1548
2880 2 1784 1783 1786
2881 2 1784 1783 1787
2882 2 1784 1783 1788
2883 1 1786 1783 1787
2884 1 1786 1783 1788
2885 1 1787 1783 1788
2886 3 1784 1785 1791
2887 3 1838 1839 1845
2888 2 2234 2233 2236
2889 2 2234 2233 2237
2890 2 2234 2233 2238
2891 1 2236 2233 2237
2892 1 2236 2233 2238
2893 1 2237 2233 2238
2894 2 1973 1972 1975
2895 2 1973 1972 1976
2896 2 1973 1972 1977
2897 1 1975 1972 1976
2898 1 1975 1972 1977
2899 1 1976 1972 1977
2900 5 1972 1973 1974
2901 4 1972 1973 1978
2902 4 1972 1973 1979
2903 7 1974 1973 1978
2904 7 1974 1973 1979
2905 6 1978 1973 1979
2906 3 1973 1974 1980
2907 3 65 66 72
2908 3 263 264 270
2909 3 605 606 612
2910 2 974 973 976
2911 2 974 973 977
2912 2 974 973 978
2913 1 976 973 977
2914 1 976 973 978
2915 1 977 973 978
2916 5 973 974 975
2917 4 973 974 979
2918 4 973 974 980
2919 7 975 974 979
2920 7 975 974 980
2921 6 979 974 980
2922 3 974 975 981
2923 5 1882 1883 1884
2924 4 1882 1883 1888
2925 4 1882 1883 1889
2926 7 1884 1883 1888
2927 7 1884 1883 1889
2928 6 1888 1883 1889
2929 2 1487 1486 1489
2930 2 1487 1486 1490
2931 2 1487 1486 1491
2932 1 1489 1486 1490
2933 1 1489 1486 1491
2934 1 1490 1486 1491
2935 5 1486 1487 1488
2936 4 1486 1487 1492
2937 4 1486 1487 1493
2938 7 1488 1487 1492
2939 7 1488 1487 1493
2940 6 1492 1487 1493
2941 3 1487 1488 1494
2942 5 2233 2234 2235
2943 4 2233 2234 2239
2944 4 2233 2234 2240
2945 7 2235 2234 2239
2946 7 2235 2234 2240
2947 6 2239 2234 2240
2948 2 2018 2017 2020
2949 2 2018 2017 2021
2950 2 2018 2017 2022
2951 1 2020 2017 2021
2952 1 2020 2017 2022
2953 1 2021 2017 2022
2954 5 2017 2018 2019
2955 4 2017 2018 2023
2956 4 2017 2018 2024
2957 7 2019 2018 2023
2958 7 2019 2018 2024
2959 6 2023 2018 2024
2960 3 2018 2019 2025
2961 2 2099 2098 2101
2962 2 2099 2098 2102
2963 2 2099 2098 2103
2964 1 2101 2098 2102
2965 1 2101 2098 2103
2966 1 2102 2098 2103
2967 5 2098 2099 2100
2968 4 2098 2099 2104
2969 4 2098 2099 2105
2970 7 2100 2099 2104
2971 7 2100 2099 2105
2972 6 2104 2099 2105
2973 5 2062 2063 2064
2974 4 2062 2063 2068
2975 4 2062 2063 2069
2976 7 2064 2063 2068
2977 7 2064 2063 2069
2978 6 2068 2063 2069
2979 3 2234 2235 2241
2980 2 65 64 67
2981 2 65 64 68
2982 2 65 64 69
2983 1 67 64 68
2984 1 67 64 69
2985 1 68 64 69
2986 5 64 65 66
2987 4 64 65 70
2988 4 64 65 71
2989 7 66 65 70
2990 7 66 65 71
2991 6 70 65 71
2992 5 262 263 264
2993 4 262 263 268
2994 4 262 263 269
2995 7 264 263 268
2996 7 264 263 269
2997 6 268 263 269
2998 2 947 946 949
2999 2 947 946 950
3000 2 947 946 951
3001 1 949 946 950
3002 1 949 946 951
3003 1 950 946 951
3004 5 1018 1019 1020
3005 4 1018 1019 1024
3006 4 1018 1019 1025
3007 7 1020 1019 1024
3008 7 1020 1019 1025
3009 6 1024 1019 1025
3010 3 1019 1020 1026
3011 2 1460 1459 1462
3012 2 1460 1459 1463
3013 2 1460 1459 1464
3014 1 1462 1459 1463
3015 1 1462 1459 1464
3016 1 1463 1459 1464
3017 5 1459 1460 1461
3018 4 1459 1460 1465
3019 4 1459 1460 1466
3020 7 1461 1460 1465
3021 7 1461 1460 1466
3022 6 1465 1460 1466
3023 3 1460 1461 1467
3024 3 308 309 315
3025 2 308 307 310
3026 2 308 307 311
3027 2 308 307 312
3028 1 310 307 311
3029 1 310 307 312
3030 1 311 307 312
3031 2 1037 1036 1039
3032 2 1037 1036 1040
3033 2 1037 1036 1041
3034 1 1039 1036 1040
3035 1 1039 1036 1041
3036 1 1040 1036 1041
3037 3 1028 1029 1035
3038 2 470 469 472
3039 2 470 469 473
3040 2 470 469 474
3041 1 472 469 473
3042 1 472 469 474
3043 1 473 469 474
3044 2 101 100 103
3045 2 101 100 104
3046 2 101 100 105
3047 1 103 100 104
3048 1 103 100 105
3049 1 104 100 105
3050 2 1091 1090 1093
3051 2 1091 1090 1094
3052 2 1091 1090 1095
3053 1 1093 1090 1094
3054 1 1093 1090 1095
3055 1 1094 1090 1095
3056 2 1982 1981 1984
3057 2 1982 1981 1985
3058 2 1982 1981 1986
3059 1 1984 1981 1985
3060 1 1984 1981 1986
3061 1 1985 1981 1986
3062 2 56 55 58
3063 2 56 55 59
3064 2 56 55 60
3065 1 58 55 59
3066 1 58 55 60
3067 1 59 55 60
3068 5 55 56 57
3069 4 55 56 61
3070 4 55 56 62
3071 7 57 56 61
3072 7 57 56 62
3073 6 61 56 62
3074 3 56 57 63
3075 2 146 145 148
3076 2 146 145 149
3077 2 146 145 150
3078 1 148 145 149
3079 1 148 145 150
3080 1 149 145 150
3081 3 146 147 153
3082 2 416 415 418
3083 2 416 415 419
3084 2 416 415 420
3085 1 418 415 419
3086 1 418 415 420
3087 1 419 415 420
3088 2 758 757 760
3089 2 758 757 761
3090 2 758 757 762
3091 1 760 757 761
3092 1 760 757 762
3093 1 761 757 762
3094 5 757 758 759
3095 4 757 758 763
3096 4 757 758 764
3097 7 759 758 763
3098 7 759 758 764
3099 6 763 758 764
3100 3 2081 2082 2088
3101 2 1316 1315 1318
3102 2 1316 1315 1319
3103 2 1316 1315 1320
3104 1 1318 1315 1319
3105 1 1318 1315 1320
3106 1 1319 1315 1320
3107 5 1315 1316 1317
3108 4 1315 1316 1321
3109 4 1315 1316 1322
3110 7 1317 1316 1321
3111 7 1317 1316 1322
3112 6 1321 1316 1322
3113 3 1316 1317 1323
3114 2 1595 1594 1597
3115 2 1595 1594 1598
3116 2 1595 1594 1599
3117 1 1597 1594 1598
3118 1 1597 1594 1599
3119 1 1598 1594 1599
3120 5 1594 1595 1596
3121 4 1594 1595 1600
3122 4 1594 1595 1601
3123 7 1596 1595 1600
3124 7 1596 1595 1601
3125 6 1600 1595 1601
3126 3 1595 1596 1602
3127 5 1342 1343 1344
3128 4 1342 1343 1348
3129 4 1342 1343 1349
3130 7 1344 1343 1348
3131 7 1344 1343 1349
3132 6 1348 1343 1349
3133 2 1928 1927 1930
3134 2 1928 1927 1931
3135 2 1928 1927 1932
3136 1 1930 1927 1931
3137 1 1930 1927 1932
3138 1 1931 1927 1932
3139 5 1927 1928 1929
3140 4 1927 1928 1933
3141 4 1927 1928 1934
3142 7 1929 1928 1933
3143 7 1929 1928 1934
3144 6 1933 1928 1934
3145 3 1928 1929 1935
3146 3 2099 2100 2106
3147 5 2080 2081 2082
3148 4 2080 2081 2086
3149 4 2080 2081 2087
3150 7 2082 2081 2086
3151 7 2082 2081 2087
3152 6 2086 2081 2087
3153 3 785 786 792
3154 5 784 785 786
3155 4 784 785 790
3156 4 784 785 791
3157 7 786 785 790
3158 7 786 785 791
3159 6 790 785 791
3160 3 47 48 54
3161 5 307 308 309
3162 4 307 308 313
3163 4 307 308 314
3164 7 309 308 313
3165 7 309 308 314
3166 6 313 308 314
3167 5 415 416 417
3168 4 415 416 421
3169 4 415 416 422
3170 7 417 416 421
3171 7 417 416 422
3172 6 421 416 422
3173 3 416 417 423
3174 3 1343 1344 1350
3175 2 785 784 787
3176 2 785 784 788
3177 2 785 784 789
3178 1 787 784 788
3179 1 787 784 789
3180 1 788 784 789
3181 2 1343 1342 1345
3182 2 1343 1342 1346
3183 2 1343 1342 1347
3184 1 1345 1342 1346
3185 1 1345 1342 1347
3186 1 1346 1342 1347
3187 2 956 955 958
3188 2 956 955 959
3189 2 956 955 960
3190 1 958 955 959
3191 1 958 955 960
3192 1 959 955 960
3193 5 955 956 957
3194 4 955 956 961
3195 4 955 956 962
3196 7 957 956 961
3197 7 957 956 962
3198 6 961 956 962
3199 5 46 47 48
3200 4 46 47 52
3201 4 46 47 53
3202 7 48 47 52
3203 7 48 47 53
3204 6 52 47 53
3205 5 145 146 147
3206 4 145 146 151
3207 4 145 146 152
3208 7 147 146 151
3209 7 147 146 152
3210 6 151 146 152
3211 2 2081 2080 2083
3212 2 2081 2080 2084
3213 2 2081 2080 2085
3214 1 2083 2080 2084
3215 1 2083 2080 2085
3216 1 2084 2080 2085
3217 3 1154 1155 1161
3218 2 1550 1549 1552
3219 2 1550 1549 1553
3220 2 1550 1549 1554
3221 1 1552 1549 1553
3222 1 1552 1549 1554
3223 1 1553 1549 1554
3224 5 1549 1550 1551
3225 4 1549 1550 1555
3226 4 1549 1550 1556
3227 7 1551 1550 1555
3228 7 1551 1550 1556
3229 6 1555 1550 1556
3230 3 1550 1551 1557
3231 2 1604 1603 1606
3232 2 1604 1603 1607
3233 2 1604 1603 1608
3234 1 1606 1603 1607
3235 1 1606 1603 1608
3236 1 1607 1603 1608
3237 5 1603 1604 1605
3238 4 1603 1604 1609
3239 4 1603 1604 1610
3240 7 1605 1604 1609
3241 7 1605 1604 1610
3242 6 1609 1604 1610
3243 3 1604 1605 1611
3244 3 2171 2172 2178
3245 2 1442 1441 1444
3246 2 1442 1441 1445
3247 2 1442 1441 1446
3248 1 1444 1441 1445
3249 1 1444 1441 1446
3250 1 1445 1441 1446

Dihedrals

1 1 1219 1216 1217 1222
2 1 1219 1216 1217 1223
3 1 1220 1216 1217 1222
4 1 1220 1216 1217 1223
5 1 1221 1216 1217 1222
6 1 1221 1216 1217 1223
7 1 1570 1567 1568 1573
8 1 1570 1567 1568 1574
9 1 1571 1567 1568 1573
10 1 1571 1567 1568 1574
11 1 1572 1567 1568 1573
12 1 1572 1567 1568 1574
13 3 1567 1568 1569 1575
14 2 1569 1568 1567 1570
15 2 1569 1568 1567 1571
16 2 1569 1568 1567 1572
17 4 1573 1568 1569 1575
18 4 1574 1568 1569 1575
19 1 1678 1675 1676 1681
20 1 1678 1675 1676 1682
21 1 1679 1675 1676 1681
22 1 1679 1675 1676 1682
23 1 1680 1675 1676 1681
24 1 1680 1675 1676 1682
25 3 1675 1676 1677 1683
26 2 1677 1676 1675 1678
27 2 1677 1676 1675 1679
28 2 1677 1676 1675 1680
29 4 1681 1676 1677 1683
30 4 1682 1676 1677 1683
31 3 1819 1820 1821 1827
32 2 1821 1820 1819 1822
33 2 1821 1820 1819 1823
34 2 1821 1820 1819 1824
35 4 1825 1820 1821 1827
36 4 1826 1820 1821 1827
37 1 2227 2224 2225 2230
38 1 2227 2224 2225 2231
39 1 2228 2224 2225 2230
40 1 2228 2224 2225 2231
41 1 2229 2224 2225 2230
42 1 2229 2224 2225 2231
43 3 2224 2225 2226 2232
44 2 2226 2225 2224 2227
45 2 2226 2225 2224 2228
46 2 2226 2225 2224 2229
47 4 2230 2225 2226 2232
48 4 2231 2225 2226 2232
49 1 1012 1009 1010 1015
50 1 1012 1009 1010 1016
51 1 1013 1009 1010 1015
52 1 1013 1009 1010 1016
53 1 1014 1009 1010 1015
54 1 1014 1009 1010 1016
55 3 1009 1010 1011 1017
56 2 1011 1010 1009 1012
57 2 1011 1010 1009 1013
58 2 1011 1010 1009 1014
59 4 1015 1010 1011 1017
60 4 1016 1010 1011 1017
61 3 1216 1217 1218 1224
62 2 1218 1217 1216 1219
63 2 1218 1217 1216 1220
64 2 1218 1217 1216 1221
65 4 1222 1217 1218 1224
66 4 1223 1217 1218 1224
67 1 1291 1288 1289 1294
68 1 1291 1288 1289 1295
69 1 1292 1288 1289 1294
70 1 1292 1288 1289 1295
71 1 1293 1288 1289 1294
72 1 1293 1288 1289 1295
73 3 1288 1289 1290 1296
74 2 1290 1289 1288 1291
75 2 1290 1289 1288 1292
76 2 1290 1289 1288 1293
77 4 1294 1289 1290 1296
78 4 1295 1289 1290 1296
79 1 1399 1396 1397 1402
80 1 1399 1396 1397 1403
81 1 1400 1396 1397 1402
82 1 1400 1396 1397 1403
83 1 1401 1396 1397 1402
84 1 1401 1396 1397 1403
85 3 1396 1397 1398 1404
86 2 1398 1397 1396 1399
87 2 1398 1397 1396 1400
88 2 1398 1397 1396 1401
89 4 1402 1397 1398 1404
90 4 1403 1397 1398 1404
91 1 1453 1450 1451 1456
92 1 1453 1450 1451 1457
93 1 1454 1450 1451 1456
94 1 1454 1450 1451 1457
95 1 1455 1450 1451 1456
96 1 1455 1450 1451 1457
97 3 1450 1451 1452 1458
98 2 1452 1451 1450 1453
99 2 1452 1451 1450 1454
100 2 1452 1451 1450 1455
101 4 1456 1451 1452 1458
102 4 1457 1451 1452 1458
103 1 1822 1819 1820 1825
104 1 1822 1819 1820 1826
105 1 1823 1819 1820 1825
106 1 1823 1819 1820 1826
107 1 1824 1819 1820 1825
108 1 1824 1819 1820 1826
109 1 184 181 182 187
110 1 184 181 182 188
111 1 185 181 182 187
112 1 185 181 182 188
113 1 186 181 182 187
114 1 186 181 182 188
115 3 181 182 183 189
116 2 183 182 181 184
117 2 183 182 181 185
118 2 183 182 181 186
119 4 187 182 183 189
120 4 188 182 183 189
121 3 1270 1271 1272 1278
122 2 1272 1271 1270 1273
123 2 1272 1271 1270 1274
124 2 1272 1271 1270 1275
125 4 1276 1271 1272 1278
126 4 1277 1271 1272 1278
127 1 1273 1270 1271 1276
128 1 1273 1270 1271 1277
129 1 1274 1270 1271 1276
130 1 1274 1270 1271 1277
131 1 1275 1270 1271 1276
132 1 1275 1270 1271 1277
133 1 1003 1000 1001 1006
134 1 1003 1000 1001 1007
135 1 1004 1000 1001 1006
136 1 1004 1000 1001 1007
137 1 1005 1000 1001 1006
138 1 1005 1000 1001 1007
139 3 1000 1001 1002 1008
140 2 1002 1001 1000 1003
141 2 1002 1001 1000 1004
142 2 1002 1001 1000 1005
143 4 1006 1001 1002 1008
144 4 1007 1001 1002 1008
145 1 589 586 587 592
146 1 589 586 587 593
147 1 590 586 587 592
148 1 590 586 587 593
149 1 591 586 587 592
150 1 591 586 587 593
151 1 1309 1306 1307 1312
152 1 1309 1306 1307 1313
153 1 1310 1306 1307 1312
154 1 1310 1306 1307 1313
155 1 1311 1306 1307 1312
156 1 1311 1306 1307 1313
157 3 1306 1307 1308 1314
158 2 1308 1307 1306 1309
159 2 1308 1307 1306 1310
160 2 1308 1307 1306 1311
161 4 1312 1307 1308 1314
162 4 1313 1307 1308 1314
163 3 2242 2243 2244 2250
164 2 2244 2243 2242 2245
165 2 2244 2243 2242 2246
166 2 2244 2243 2242 2247
167 4 2248 2243 2244 2250
168 4 2249 2243 2244 2250
169 1 436 433 434 439
170 1 436 433 434 440
171 1 437 433 434 439
172 1 437 433 434 440
173 1 438 433 434 439
174 1 438 433 434 440
175 3 433 434 435 441
176 2 435 434 433 436
177 2 435 434 433 437
178 2 435 434 433 438
179 4 439 434 435 441
180 4 440 434 435 441
181 1 463 460 461 466
182 1 463 460 461 467
183 1 464 460 461 466
184 1 464 460 461 467
185 1 465 460 461 466
186 1 465 460 461 467
187 1 535 532 533 538
188 1 535 532 533 539
189 1 536 532 533 538
190 1 536 532 533 539
191 1 537 532 533 538
192 1 537 532 533 539
193 3 532 533 534 540
194 2 534 533 532 535
195 2 534 533 532 536
196 2 534 533 532 537
197 4 538 533 534 540
198 4 539 533 534 540
199 1 139 136 137 142
200 1 139 136 137 143
201 1 140 136 137 142
202 1 140 136 137 143
203 1 141 136 137 142
204 1 141 136 137 143
205 1 2245 2242 2243 2248
206 1 2245 2242 2243 2249
207 1 2246 2242 2243 2248
208 1 2246 2242 2243 2249
209 1 2247 2242 2243 2248
210 1 2247 2242 2243 2249
211 1 1075 1072 1073 1078
212 1 1075 1072 1073 1079
213 1 1076 1072 1073 1078
214 1 1076 1072 1073 1079
215 1 1077 1072 1073 1078
216 1 1077 1072 1073 1079
217 3 1072 1073 1074 1080
218 2 1074 1073 1072 1075
219 2 1074 1073 1072 1076
220 2 1074 1073 1072 1077
221 4 1078 1073 1074 1080
222 4 1079 1073 1074 1080
223 3 1405 1406 1407 1413
224 2 1407 1406 1405 1408
225 2 1407 1406 1405 1409
226 2 1407 1406 1405 1410
227 4 1411 1406 1407 1413
228 4 1412 1406 1407 1413
229 1 1957 1954 1955 1960
230 1 1957 1954 1955 1961
231 1 1958 1954 1955 1960
232 1 1958 1954 1955 1961
233 1 1959 1954 1955 1960
234 1 1959 1954 1955 1961
235 3 1954 1955 1956 1962
236 2 1956 1955 1954 1957
237 2 1956 1955 1954 1958
238 2 1956 1955 1954 1959
239 4 1960 1955 1956 1962
240 4 1961 1955 1956 1962
241 3 586 587 588 594
242 2 588 587 586 589
243 2 588 587 586 590
244 2 588 587 586 591
245 4 592 587 588 594
246 4 593 587 588 594
247 3 1225 1226 1227 1233
248 2 1227 1226 1225 1228
249 2 1227 1226 1225 1229
250 2 1227 1226 1225 1230
251 4 1231 1226 1227 1233
252 4 1232 1226 1227 1233
253 1 193 190 191 196
254 1 193 190 191 197
255 1 194 190 191 196
256 1 194 190 191 197
257 1 195 190 191 196
258 1 195 190 191 197
259 3 190 191 192 198
260 2 192 191 190 193
261 2 192 191 190 194
262 2 192 191 190 195
263 4 196 191 192 198
264 4 197 191 192 198
265 1 301 298 299 304
266 1 301 298 299 305
267 1 302 298 299 304
268 1 302 298 299 305
269 1 303 298 299 304
270 1 303 298 299 305
271 1 1516 1513 1514 1519
272 1 1516 1513 1514 1520
273 1 1517 1513 1514 1519
274 1 1517 1513 1514 1520
275 1 1518 1513 1514 1519
276 1 1518 1513 1514 1520
277 3 1513 1514 1515 1521
278 2 1515 1514 1513 1516
279 2 1515 1514 1513 1517
280 2 1515 1514 1513 1518
281 4 1519 1514 1515 1521
282 4 1520 1514 1515 1521
283 1 1921 1918 1919 1924
284 1 1921 1918 1919 1925
285 1 1922 1918 1919 1924
286 1 1922 1918 1919 1925
287 1 1923 1918 1919 1924
288 1 1923 1918 1919 1925
289 3 1918 1919 1920 1926
290 2 1920 1919 1918 1921
291 2 1920 1919 1918 1922
292 2 1920 1919 1918 1923
293 4 1924 1919 1920 1926
294 4 1925 1919 1920 1926
295 3 1936 1937 1938 1944
296 2 1938 1937 1936 1939
297 2 1938 1937 1936 1940
298 2 1938 1937 1936 1941
299 4 1942 1937 1938 1944
300 4 1943 1937 1938 1944
301 3 298 299 300 306
302 2 300 299 298 301
303 2 300 299 298 302
304 2 300 299 298 303
305 4 304 299 300 306
306 4 305 299 300 306
307 1 373 370 371 376
308 1 373 370 371 377
309 1 374 370 371 376
310 1 374 370 371 377
311 1 375 370 371 376
312 1 375 370 371 377
313 3 370 371 372 378
314 2 372 371 370 373
315 2 372 371 370 374
316 2 372 371 370 375
317 4 376 371 372 378
318 4 377 371 372 378
319 1 643 640 641 646
320 1 643 640 641 647
321 1 644 640 641 646
322 1 644 640 641 647
323 1 645 640 641 646
324 1 645 640 641 647
325 3 640 641 642 648
326 2 642 641 640 643
327 2 642 641 640 644
328 2 642 641 640 645
329 4 646 641 642 648
330 4 647 641 642 648
331 1 670 667 668 673
332 1 670 667 668 674
333 1 671 667 668 673
334 1 671 667 668 674
335 1 672 667 668 673
336 1 672 667 668 674
337 3 667 668 669 675
338 2 669 668 667 670
339 2 669 668 667 671
340 2 669 668 667 672
341 4 673 668 669 675
342 4 674 668 669 675
343 1 679 676 677 682
344 1 679 676 677 683
345 1 680 676 677 682
346 1 680 676 677 683
347 1 681 676 677 682
348 1 681 676 677 683
349 3 676 677 678 684
350 2 678 677 676 679
351 2 678 677 676 680
352 2 678 677 676 681
353 4 682 677 678 684
354 4 683 677 678 684
355 1 1579 1576 1577 1582
356 1 1579 1576 1577 1583
357 1 1580 1576 1577 1582
358 1 1580 1576 1577 1583
359 1 1581 1576 1577 1582
360 1 1581 1576 1577 1583
361 3 1576 1577 1578 1584
362 2 1578 1577 1576 1579
363 2 1578 1577 1576 1580
364 2 1578 1577 1576 1581
365 4 1582 1577 1578 1584
366 4 1583 1577 1578 1584
367 1 544 541 542 547
368 1 544 541 542 548
369 1 545 541 542 547
370 1 545 541 542 548
371 1 546 541 542 547
372 1 546 541 542 548
373 1 427 424 425 430
374 1 427 424 425 431
375 1 428 424 425 430
376 1 428 424 425 431
377 1 429 424 425 430
378 1 429 424 425 431
379 3 424 425 426 432
380 2 426 425 424 427
381 2 426 425 424 428
382 2 426 425 424 429
383 4 430 425 426 432
384 4 431 425 426 432
385 1 661 658 659 664
386 1 661 658 659 665
387 1 662 658 659 664
388 1 662 658 659 665
389 1 663 658 659 664
390 1 663 658 659 665
391 3 658 659 660 666
392 2 660 659 658 661
393 2 660 659 658 662
394 2 660 659 658 663
395 4 664 659 660 666
396 4 665 659 660 666
397 1 1201 1198 1199 1204
398 1 1201 1198 1199 1205
399 1 1202 1198 1199 1204
400 1 1202 1198 1199 1205
401 1 1203 1198 1199 1204
402 1 1203 1198 1199 1205
403 3 1198 1199 1200 1206
404 2 1200 1199 1198 1201
405 2 1200 1199 1198 1202
406 2 1200 1199 1198 1203
407 4 1204 1199 1200 1206
408 4 1205 1199 1200 1206
409 1 499 496 497 502
410 1 499 496 497 503
411 1 500 496 497 502
412 1 500 496 497 503
413 1 501 496 497 502
414 1 501 496 497 503
415 3 2107 2108 2109 2115
416 2 2109 2108 2107 2110
417 2 2109 2108 2107 2111
418 2 2109 2108 2107 2112
419 4 2113 2108 2109 2115
420 4 2114 2108 2109 2115
421 3 541 542 543 549
422 2 543 542 541 544
423 2 543 542 541 545
424 2 543 542 541 546
425 4 547 542 543 549
426 4 548 542 543 549
427 1 1804 1801 1802 1807
428 1 1804 1801 1802 1808
429 1 1805 1801 1802 1807
430 1 1805 1801 1802 1808
431 1 1806 1801 1802 1807
432 1 1806 1801 1802 1808
433 3 1801 1802 1803 1809
434 2 1803 1802 1801 1804
435 2 1803 1802 1801 1805
436 2 1803 1802 1801 1806
437 4 1807 1802 1803 1809
438 4 1808 1802 1803 1809
439 1 1903 1900 1901 1906
440 1 1903 1900 1901 1907
441 1 1904 1900 1901 1906
442 1 1904 1900 1901 1907
443 1 1905 1900 1901 1906
444 1 1905 1900 1901 1907
445 1 202 199 200 205
446 1 202 199 200 206
447 1 203 199 200 205
448 1 203 199 200 206
449 1 204 199 200 205
450 1 204 199 200 206
451 3 793 794 795 801
452 2 795 794 793 796
453 2 795 794 793 797
454 2 795 794 793 798
455 4 799 794 795 801
456 4 800 794 795 801
457 1 751 748 749 754
458 1 751 748 749 755
459 1 752 748 749 754
460 1 752 748 749 755
461 1 753 748 749 754
462 1 753 748 749 755
463 3 748 749 750 756
464 2 750 749 748 751
465 2 750 749 748 752
466 2 750 749 748 753
467 4 754 749 750 756
468 4 755 749 750 756
469 1 994 991 992 997
470 1 994 991 992 998
471 1 995 991 992 997
472 1 995 991 992 998
473 1 996 991 992 997
474 1 996 991 992 998
475 3 991 992 993 999
476 2 993 992 991 994
477 2 993 992 991 995
478 2 993 992 991 996
479 4 997 992 993 999
480 4 998 992 993 999
481 1 1813 1810 1811 1816
482 1 1813 1810 1811 1817
483 1 1814 1810 1811 1816
484 1 1814 1810 1811 1817
485 1 1815 1810 1811 1816
486 1 1815 1810 1811 1817
487 3 1810 1811 1812 1818
488 2 1812 1811 1810 1813
489 2 1812 1811 1810 1814
490 2 1812 1811 1810 1815
491 4 1816 1811 1812 1818
492 4 1817 1811 1812 1818
493 1 1831 1828 1829 1834
494 1 1831 1828 1829 1835
495 1 1832 1828 1829 1834
496 1 1832 1828 1829 1835
497 1 1833 1828 1829 1834
498 1 1833 1828 1829 1835
499 3 1828 1829 1830 1836
500 2 1830 1829 1828 1831
501 2 1830 1829 1828 1832
502 2 1830 1829 1828 1833
503 4 1834 1829 1830 1836
504 4 1835 1829 1830 1836
505 3 1846 1847 1848 1854
506 2 1848 1847 1846 1849
507 2 1848 1847 1846 1850
508 2 1848 1847 1846 1851
509 4 1852 1847 1848 1854
510 4 1853 1847 1848 1854
511 1 1939 1936 1937 1942
512 1 1939 1936 1937 1943
513 1 1940 1936 1937 1942
514 1 1940 1936 1937 1943
515 1 1941 1936 1937 1942
516 1 1941 1936 1937 1943
517 1 1849 1846 1847 1852
518 1 1849 1846 1847 1853
519 1 1850 1846 1847 1852
520 1 1850 1846 1847 1853
521 1 1851 1846 1847 1852
522 1 1851 1846 1847 1853
523 1 1876 1873 1874 1879
524 1 1876 1873 1874 1880
525 1 1877 1873 1874 1879
526 1 1877 1873 1874 1880
527 1 1878 1873 1874 1879
528 1 1878 1873 1874 1880
529 3 496 497 498 504
530 2 498 497 496 499
531 2 498 497 496 500
532 2 498 497 496 501
533 4 502 497 498 504
534 4 503 497 498 504
535 3 1873 1874 1875 1881
536 2 1875 1874 1873 1876
537 2 1875 1874 1873 1877
538 2 1875 1874 1873 1878
539 4 1879 1874 1875 1881
540 4 1880 1874 1875 1881
541 1 2191 2188 2189 2194
542 1 2191 2188 2189 2195
543 1 2192 2188 2189 2194
544 1 2192 2188 2189 2195
545 1 2193 2188 2189 2194
546 1 2193 2188 2189 2195
547 3 2188 2189 2190 2196
548 2 2190 2189 2188 2191
549 2 2190 2189 2188 2192
550 2 2190 2189 2188 2193
551 4 2194 2189 2190 2196
552 4 2195 2189 2190 2196
553 1 796 793 794 799
554 1 796 793 794 800
555 1 797 793 794 799
556 1 797 793 794 800
557 1 798 793 794 799
558 1 798 793 794 800
559 1 1228 1225 1226 1231
560 1 1228 1225 1226 1232
561 1 1229 1225 1226 1231
562 1 1229 1225 1226 1232
563 1 1230 1225 1226 1231
564 1 1230 1225 1226 1232
565 1 1255 1252 1253 1258
566 1 1255 1252 1253 1259
567 1 1256 1252 1253 1258
568 1 1256 1252 1253 1259
569 1 1257 1252 1253 1258
570 1 1257 1252 1253 1259
571 1 904 901 902 907
572 1 904 901 902 908
573 1 905 901 902 907
574 1 905 901 902 908
575 1 906 901 902 907
576 1 906 901 902 908
577 1 580 577 578 583
578 1 580 577 578 584
579 1 581 577 578 583
580 1 581 577 578 584
581 1 582 577 578 583
582 1 582 577 578 584
583 3 577 578 579 585
584 2 579 578 577 580
585 2 579 578 577 581
586 2 579 578 577 582
587 4 583 578 579 585
588 4 584 578 579 585
589 1 715 712 713 718
590 1 715 712 713 719
591 1 716 712 713 718
592 1 716 712 713 719
593 1 717 712 713 718
594 1 717 712 713 719
595 3 712 713 714 720
596 2 714 713 712 715
597 2 714 713 712 716
598 2 714 713 712 717
599 4 718 713 714 720
600 4 719 713 714 720
601 1 1246 1243 1244 1249
602 1 1246 1243 1244 1250
603 1 1247 1243 1244 1249
604 1 1247 1243 1244 1250
605 1 1248 1243 1244 1249
606 1 1248 1243 1244 1250
607 3 1243 1244 1245 1251
608 2 1245 1244 1243 1246
609 2 1245 1244 1243 1247
610 2 1245 1244 1243 1248
611 4 1249 1244 1245 1251
612 4 1250 1244 1245 1251
613 1 1417 1414 1415 1420
614 1 1417 1414 1415 1421
615 1 1418 1414 1415 1420
616 1 1418 1414 1415 1421
617 1 1419 1414 1415 1420
618 1 1419 1414 1415 1421
619 1 382 379 380 385
620 1 382 379 380 386
621 1 383 379 380 385
622 1 383 379 380 386
623 1 384 379 380 385
624 1 384 379 380 386
625 3 379 380 381 387
626 2 381 380 379 382
627 2 381 380 379 383
628 2 381 380 379 384
629 4 385 380 381 387
630 4 386 380 381 387
631 1 562 559 560 565
632 1 562 559 560 566
633 1 563 559 560 565
634 1 563 559 560 566
635 1 564 559 560 565
636 1 564 559 560 566
637 3 559 560 561 567
638 2 561 560 559 562
639 2 561 560 559 563
640 2 561 560 559 564
641 4 565 560 561 567
642 4 566 560 561 567
643 1 1120 1117 1118 1123
644 1 1120 1117 1118 1124
645 1 1121 1117 1118 1123
646 1 1121 1117 1118 1124
647 1 1122 1117 1118 1123
648 1 1122 1117 1118 1124
649 3 1117 1118 1119 1125
650 2 1119 1118 1117 1120
651 2 1119 1118 1117 1121
652 2 1119 1118 1117 1122
653 4 1123 1118 1119 1125
654 4 1124 1118 1119 1125
655 1 1561 1558 1559 1564
656 1 1561 1558 1559 1565
657 1 1562 1558 1559 1564
658 1 1562 1558 1559 1565
659 1 1563 1558 1559 1564
660 1 1563 1558 1559 1565
661 1 1858 1855 1856 1861
662 1 1858 1855 1856 1862
663 1 1859 1855 1856 1861
664 1 1859 1855 1856 1862
665 1 1860 1855 1856 1861
666 1 1860 1855 1856 1862
667 3 1855 1856 1857 1863
668 2 1857 1856 1855 1858
669 2 1857 1856 1855 1859
670 2 1857 1856 1855 1860
671 4 1861 1856 1857 1863
672 4 1862 1856 1857 1863
673 3 226 227 228 234
674 2 228 227 226 229
675 2 228 227 226 230
676 2 228 227 226 231
677 4 232 227 228 234
678 4 233 227 228 234
679 3 1414 1415 1416 1422
680 2 1416 1415 1414 1417
681 2 1416 1415 1414 1418
682 2 1416 1415 1414 1419
683 4 1420 1415 1416 1422
684 4 1421 1415 1416 1422
685 1 256 253 254 259
686 1 256 253 254 260
687 1 257 253 254 259
688 1 257 253 254 260
689 1 258 253 254 259
690 1 258 253 254 260
691 3 253 254 255 261
692 2 255 254 253 256
693 2 255 254 253 257
694 2 255 254 253 258
695 4 259 254 255 261
696 4 260 254 255 261
697 3 1162 1163 1164 1170
698 2 1164 1163 1162 1165
699 2 1164 1163 1162 1166
700 2 1164 1163 1162 1167
701 4 1168 1163 1164 1170
702 4 1169 1163 1164 1170
703 1 229 226 227 232
704 1 229 226 227 233
705 1 230 226 227 232
706 1 230 226 227 233
707 1 231 226 227 232
708 1 231 226 227 233
709 1 1264 1261 1262 1267
710 1 1264 1261 1262 1268
711 1 1265 1261 1262 1267
712 1 1265 1261 1262 1268
713 1 1266 1261 1262 1267
714 1 1266 1261 1262 1268
715 3 1261 1262 1263 1269
716 2 1263 1262 1261 1264
717 2 1263 1262 1261 1265
718 2 1263 1262 1261 1266
719 4 1267 1262 1263 1269
720 4 1268 1262 1263 1269
721 1 1615 1612 1613 1618
722 1 1615 1612 1613 1619
723 1 1616 1612 1613 1618
724 1 1616 1612 1613 1619
725 1 1617 1612 1613 1618
726 1 1617 1612 1613 1619
727 3 1612 1613 1614 1620
728 2 1614 1613 1612 1615
729 2 1614 1613 1612 1616
730 2 1614 1613 1612 1617
731 4 1618 1613 1614 1620
732 4 1619 1613 1614 1620
733 1 1696 1693 1694 1699
734 1 1696 1693 1694 1700
735 1 1697 1693 1694 1699
736 1 1697 1693 1694 1700
737 1 1698 1693 1694 1699
738 1 1698 1693 1694 1700
739 3 478 479 480 486
740 2 480 479 478 481
741 2 480 479 478 482
742 2 480 479 478 483
743 4 484 479 480 486
744 4 485 479 480 486
745 1 724 721 722 727
746 1 724 721 722 728
747 1 725 721 722 727
748 1 725 721 722 728
749 1 726 721 722 727
750 1 726 721 722 728
751 3 721 722 723 729
752 2 723 722 721 724
753 2 723 722 721 725
754 2 723 722 721 726
755 4 727 722 723 729
756 4 728 722 723 729
757 3 1693 1694 1695 1701
758 2 1695 1694 1693 1696
759 2 1695 1694 1693 1697
760 2 1695 1694 1693 1698
761 4 1699 1694 1695 1701
762 4 1700 1694 1695 1701
763 1 1435 1432 1433 1438
764 1 1435 1432 1433 1439
765 1 1436 1432 1433 1438
766 1 1436 1432 1433 1439
767 1 1437 1432 1433 1438
768 1 1437 1432 1433 1439
769 3 1432 1433 1434 1440
770 2 1434 1433 1432 1435
771 2 1434 1433 1432 1436
772 2 1434 1433 1432 1437
773 4 1438 1433 1434 1440
774 4 1439 1433 1434 1440
775 1 481 478 479 484
776 1 481 478 479 485
777 1 482 478 479 484
778 1 482 478 479 485
779 1 483 478 479 484
780 1 483 478 479 485
781 3 1558 1559 1560 1566
782 2 1560 1559 1558 1561
783 2 1560 1559 1558 1562
784 2 1560 1559 1558 1563
785 4 1564 1559 1560 1566
786 4 1565 1559 1560 1566
787 3 901 902 903 909
788 2 903 902 901 904
789 2 903 902 901 905
790 2 903 902 901 906
791 4 907 902 903 909
792 4 908 902 903 909
793 3 1144 1145 1146 1152
794 2 1146 1145 1144 1147
795 2 1146 1145 1144 1148
796 2 1146 1145 1144 1149
797 4 1150 1145 1146 1152
798 4 1151 1145 1146 1152
799 1 2164 2161 2162 2167
800 1 2164 2161 2162 2168
801 1 2165 2161 2162 2167
802 1 2165 2161 2162 2168
803 1 2166 2161 2162 2167
804 1 2166 2161 2162 2168
805 3 1531 1532 1533 1539
806 2 1533 1532 1531 1534
807 2 1533 1532 1531 1535
808 2 1533 1532 1531 1536
809 4 1537 1532 1533 1539
810 4 1538 1532 1533 1539
811 1 121 118 119 124
812 1 121 118 119 125
813 1 122 118 119 124
814 1 122 118 119 125
815 1 123 118 119 124
816 1 123 118 119 125
817 3 118 119 120 126
818 2 120 119 118 121
819 2 120 119 118 122
820 2 120 119 118 123
821 4 124 119 120 126
822 4 125 119 120 126
823 1 778 775 776 781
824 1 778 775 776 782
825 1 779 775 776 781
826 1 779 775 776 782
827 1 780 775 776 781
828 1 780 775 776 782
829 3 127 128 129 135
830 2 129 128 127 130
831 2 129 128 127 131
832 2 129 128 127 132
833 4 133 128 129 135
834 4 134 128 129 135
835 1 1129 1126 1127 1132
836 1 1129 1126 1127 1133
837 1 1130 1126 1127 1132
838 1 1130 1126 1127 1133
839 1 1131 1126 1127 1132
840 1 1131 1126 1127 1133
841 3 136 137 138 144
842 2 138 137 136 139
843 2 138 137 136 140
844 2 138 137 136 141
845 4 142 137 138 144
846 4 143 137 138 144
847 1 247 244 245 250
848 1 247 244 245 251
849 1 248 244 245 250
850 1 248 244 245 251
851 1 249 244 245 250
852 1 249 244 245 251
853 3 244 245 246 252
854 2 246 245 244 247
855 2 246 245 244 248
856 2 246 245 244 249
857 4 250 245 246 252
858 4 251 245 246 252
859 1 769 766 767 772
860 1 769 766 767 773
861 1 770 766 767 772
862 1 770 766 767 773
863 1 771 766 767 772
864 1 771 766 767 773
865 3 766 767 768 774
866 2 768 767 766 769
867 2 768 767 766 770
868 2 768 767 766 771
869 4 772 767 768 774
870 4 773 767 768 774
871 3 775 776 777 783
872 2 777 776 775 778
873 2 777 776 775 779
874 2 777 776 775 780
875 4 781 776 777 783
876 4 782 776 777 783
877 1 2155 2152 2153 2158
878 1 2155 2152 2153 2159
879 1 2156 2152 2153 2158
880 1 2156 2152 2153 2159
881 1 2157 2152 2153 2158
882 1 2157 2152 2153 2159
883 1 4 1 2 7
884 1 4 1 2 8
885 1 5 1 2 7
886 1 5 1 2 8
887 1 6 1 2 7
888 1 6 1 2 8
889 1 571 568 569 574
890 1 571 568 569 575
891 1 572 568 569 574
892 1 572 568 569 575
893 1 573 568 569 574
894 1 573 568 569 575
895 1 337 334 335 340
896 1 337 334 335 341
897 1 338 334 335 340
898 1 338 334 335 341
899 1 339 334 335 340
900 1 339 334 335 341
901 3 334 335 336 342
902 2 336 335 334 337
903 2 336 335 334 338
904 2 336 335 334 339
905 4 340 335 336 342
906 4 341 335 336 342
907 1 1381 1378 1379 1384
908 1 1381 1378 1379 1385
909 1 1382 1378 1379 1384
910 1 1382 1378 1379 1385
911 1 1383 1378 1379 1384
912 1 1383 1378 1379 1385
913 3 1378 1379 1380 1386
914 2 1380 1379 1378 1381
915 2 1380 1379 1378 1382
916 2 1380 1379 1378 1383
917 4 1384 1379 1380 1386
918 4 1385 1379 1380 1386
919 3 2215 2216 2217 2223
920 2 2217 2216 2215 2218
921 2 2217 2216 2215 2219
922 2 2217 2216 2215 2220
923 4 2221 2216 2217 2223
924 4 2222 2216 2217 2223
925 1 13 10 11 16
926 1 13 10 11 17
927 1 14 10 11 16
928 1 14 10 11 17
929 1 15 10 11 16
930 1 15 10 11 17
931 3 1108 1109 1110 1116
932 2 1110 1109 1108 1111
933 2 1110 1109 1108 1112
934 2 1110 1109 1108 1113
935 4 1114 1109 1110 1116
936 4 1115 1109 1110 1116
937 1 2218 2215 2216 2221
938 1 2218 2215 2216 2222
939 1 2219 2215 2216 2221
940 1 2219 2215 2216 2222
941 1 2220 2215 2216 2221
942 1 2220 2215 2216 2222
943 1 1480 1477 1478 1483
944 1 1480 1477 1478 1484
945 1 1481 1477 1478 1483
946 1 1481 1477 1478 1484
947 1 1482 1477 1478 1483
948 1 1482 1477 1478 1484
949 3 1477 1478 1479 1485
950 2 1479 1478 1477 1480
951 2 1479 1478 1477 1481
952 2 1479 1478 1477 1482
953 4 1483 1478 1479 1485
954 4 1484 1478 1479 1485
955 1 1210 1207 1208 1213
956 1 1210 1207 1208 1214
957 1 1211 1207 1208 1213
958 1 1211 1207 1208 1214
959 1 1212 1207 1208 1213
960 1 1212 1207 1208 1214
961 3 1207 1208 1209 1215
962 2 1209 1208 1207 1210
963 2 1209 1208 1207 1211
964 2 1209 1208 1207 1212
965 4 1213 1208 1209 1215
966 4 1214 1208 1209 1215
967 1 1795 1792 1793 1798
968 1 1795 1792 1793 1799
969 1 1796 1792 1793 1798
970 1 1796 1792 1793 1799
971 1 1797 1792 1793 1798
972 1 1797 1792 1793 1799
973 3 1792 1793 1794 1800
974 2 1794 1793 1792 1795
975 2 1794 1793 1792 1796
976 2 1794 1793 1792 1797
977 4 1798 1793 1794 1800
978 4 1799 1793 1794 1800
979 1 1948 1945 1946 1951
980 1 1948 1945 1946 1952
981 1 1949 1945 1946 1951
982 1 1949 1945 1946 1952
983 1 1950 1945 1946 1951
984 1 1950 1945 1946 1952
985 1 940 937 938 943
986 1 940 937 938 944
987 1 941 937 938 943
988 1 941 937 938 944
989 1 942 937 938 943
990 1 942 937 938 944
991 1 607 604 605 610
992 1 607 604 605 611
993 1 608 604 605 610
994 1 608 604 605 611
995 1 609 604 605 610
996 1 609 604 605 611
997 1 445 442 443 448
998 1 445 442 443 449
999 1 446 442 443 448
1000 1 446 442 443 449
1001 1 447 442 443 448
1002 1 447 442 443 449
1003 3 442 443 444 450
1004 2 444 443 442 445
1005 2 444 443 442 446
1006 2 444 443 442 447
1007 4 448 443 444 450
1008 4 449 443 444 450
1009 1 832 829 830 835
1010 1 832 829 830 836
1011 1 833 829 830 835
1012 1 833 829 830 836
1013 1 834 829 830 835
1014 1 834 829 830 836
1015 3 829 830 831 837
1016 2 831 830 829 832
1017 2 831 830 829 833
1018 2 831 830 829 834
1019 4 835 830 831 837
1020 4 836 830 831 837
1021 1 1111 1108 1109 1114
1022 1 1111 1108 1109 1115
1023 1 1112 1108 1109 1114
1024 1 1112 1108 1109 1115
1025 1 1113 1108 1109 1114
1026 1 1113 1108 1109 1115
1027 3 1369 1370 1371 1377
1028 2 1371 1370 1369 1372
1029 2 1371 1370 1369 1373
1030 2 1371 1370 1369 1374
1031 4 1375 1370 1371 1377
1032 4 1376 1370 1371 1377
1033 3 1900 1901 1902 1908
1034 2 1902 1901 1900 1903
1035 2 1902 1901 1900 1904
1036 2 1902 1901 1900 1905
1037 4 1906 1901 1902 1908
1038 4 1907 1901 1902 1908
1039 3 2035 2036 2037 2043
1040 2 2037 2036 2035 2038
1041 2 2037 2036 2035 2039
1042 2 2037 2036 2035 2040
1043 4 2041 2036 2037 2043
1044 4 2042 2036 2037 2043
1045 1 2092 2089 2090 2095
1046 1 2092 2089 2090 2096
1047 1 2093 2089 2090 2095
1048 1 2093 2089 2090 2096
1049 1 2094 2089 2090 2095
1050 1 2094 2089 2090 2096
1051 3 2089 2090 2091 2097
1052 2 2091 2090 2089 2092
1053 2 2091 2090 2089 2093
1054 2 2091 2090 2089 2094
1055 4 2095 2090 2091 2097
1056 4 2096 2090 2091 2097
1057 3 208 209 210 216
1058 2 210 209 208 211
1059 2 210 209 208 212
1060 2 210 209 208 213
1061 4 214 209 210 216
1062 4 215 209 210 216
1063 3 10 11 12 18
1064 2 12 11 10 13
1065 2 12 11 10 14
1066 2 12 11 10 15
1067 4 16 11 12 18
1068 4 17 11 12 18
1069 3 2206 2207 2208 2214
1070 2 2208 2207 2206 2209
1071 2 2208 2207 2206 2210
1072 2 2208 2207 2206 2211
1073 4 2212 2207 2208 2214
1074 4 2213 2207 2208 2214
1075 1 454 451 452 457
1076 1 454 451 452 458
1077 1 455 451 452 457
1078 1 455 451 452 458
1079 1 456 451 452 457
1080 1 456 451 452 458
1081 3 451 452 453 459
1082 2 453 452 451 454
1083 2 453 452 451 455
1084 2 453 452 451 456
1085 4 457 452 453 459
1086 4 458 452 453 459
1087 1 706 703 704 709
1088 1 706 703 704 710
1089 1 707 703 704 709
1090 1 707 703 704 710
1091 1 708 703 704 709
1092 1 708 703 704 710
1093 3 703 704 705 711
1094 2 705 704 703 706
1095 2 705 704 703 707
1096 2 705 704 703 708
1097 4 709 704 705 711
1098 4 710 704 705 711
1099 1 877 874 875 880
1100 1 877 874 875 881
1101 1 878 874 875 880
1102 1 878 874 875 881
1103 1 879 874 875 880
1104 1 879 874 875 881
1105 3 1909 1910 1911 1917
1106 2 1911 1910 1909 1912
1107 2 1911 1910 1909 1913
1108 2 1911 1910 1909 1914
1109 4 1915 1910 1911 1917
1110 4 1916 1910 1911 1917
1111 1 2209 2206 2207 2212
1112 1 2209 2206 2207 2213
1113 1 2210 2206 2207 2212
1114 1 2210 2206 2207 2213
1115 1 2211 2206 2207 2212
1116 1 2211 2206 2207 2213
1117 3 937 938 939 945
1118 2 939 938 937 940
1119 2 939 938 937 941
1120 2 939 938 937 942
1121 4 943 938 939 945
1122 4 944 938 939 945
1123 1 1912 1909 1910 1915
1124 1 1912 1909 1910 1916
1125 1 1913 1909 1910 1915
1126 1 1913 1909 1910 1916
1127 1 1914 1909 1910 1915
1128 1 1914 1909 1910 1916
1129 3 1324 1325 1326 1332
1130 2 1326 1325 1324 1327
1131 2 1326 1325 1324 1328
1132 2 1326 1325 1324 1329
1133 4 1330 1325 1326 1332
1134 4 1331 1325 1326 1332
1135 3 1423 1424 1425 1431
1136 2 1425 1424 1423 1426
1137 2 1425 1424 1423 1427
1138 2 1425 1424 1423 1428
1139 4 1429 1424 1425 1431
1140 4 1430 1424 1425 1431
1141 1 2038 2035 2036 2041
1142 1 2038 2035 2036 2042
1143 1 2039 2035 2036 2041
1144 1 2039 2035 2036 2042
1145 1 2040 2035 2036 2041
1146 1 2040 2035 2036 2042
1147 3 217 218 219 225
1148 2 219 218 217 220
1149 2 219 218 217 221
1150 2 219 218 217 222
1151 4 223 218 219 225
1152 4 224 218 219 225
1153 1 49 46 47 52
1154 1 49 46 47 53
1155 1 50 46 47 52
1156 1 50 46 47 53
1157 1 51 46 47 52
1158 1 51 46 47 53
1159 1 886 883 884 889
1160 1 886 883 884 890
1161 1 887 883 884 889
1162 1 887 883 884 890
1163 1 888 883 884 889
1164 1 888 883 884 890
1165 3 883 884 885 891
1166 2 885 884 883 886
1167 2 885 884 883 887
1168 2 885 884 883 888
1169 4 889 884 885 891
1170 4 890 884 885 891
1171 1 967 964 965 970
1172 1 967 964 965 971
1173 1 968 964 965 970
1174 1 968 964 965 971
1175 1 969 964 965 970
1176 1 969 964 965 971
1177 3 964 965 966 972
1178 2 966 965 964 967
1179 2 966 965 964 968
1180 2 966 965 964 969
1181 4 970 965 966 972
1182 4 971 965 966 972
1183 1 1363 1360 1361 1366
1184 1 1363 1360 1361 1367
1185 1 1364 1360 1361 1366
1186 1 1364 1360 1361 1367
1187 1 1365 1360 1361 1366
1188 1 1365 1360 1361 1367
1189 1 1372 1369 1370 1375
1190 1 1372 1369 1370 1376
1191 1 1373 1369 1370 1375
1192 1 1373 1369 1370 1376
1193 1 1374 1369 1370 1375
1194 1 1374 1369 1370 1376
1195 1 1741 1738 1739 1744
1196 1 1741 1738 1739 1745
1197 1 1742 1738 1739 1744
1198 1 1742 1738 1739 1745
1199 1 1743 1738 1739 1744
1200 1 1743 1738 1739 1745
1201 3 1738 1739 1740 1746
1202 2 1740 1739 1738 1741
1203 2 1740 1739 1738 1742
1204 2 1740 1739 1738 1743
1205 4 1744 1739 1740 1746
1206 4 1745 1739 1740 1746
1207 1 130 127 128 133
1208 1 130 127 128 134
1209 1 131 127 128 133
1210 1 131 127 128 134
1211 1 132 127 128 133
1212 1 132 127 128 134
1213 1 220 217 218 223
1214 1 220 217 218 224
1215 1 221 217 218 223
1216 1 221 217 218 224
1217 1 222 217 218 223
1218 1 222 217 218 224
1219 3 1126 1127 1128 1134
1220 2 1128 1127 1126 1129
1221 2 1128 1127 1126 1130
1222 2 1128 1127 1126 1131
1223 4 1132 1127 1128 1134
1224 4 1133 1127 1128 1134
1225 3 874 875 876 882
1226 2 876 875 874 877
1227 2 876 875 874 878
1228 2 876 875 874 879
1229 4 880 875 876 882
1230 4 881 875 876 882
1231 1 1174 1171 1172 1177
1232 1 1174 1171 1172 1178
1233 1 1175 1171 1172 1177
1234 1 1175 1171 1172 1178
1235 1 1176 1171 1172 1177
1236 1 1176 1171 1172 1178
1237 3 1171 1172 1173 1179
1238 2 1173 1172 1171 1174
1239 2 1173 1172 1171 1175
1240 2 1173 1172 1171 1176
1241 4 1177 1172 1173 1179
1242 4 1178 1172 1173 1179
1243 1 1327 1324 1325 1330
1244 1 1327 1324 1325 1331
1245 1 1328 1324 1325 1330
1246 1 1328 1324 1325 1331
1247 1 1329 1324 1325 1330
1248 1 1329 1324 1325 1331
1249 3 1360 1361 1362 1368
1250 2 1362 1361 1360 1363
1251 2 1362 1361 1360 1364
1252 2 1362 1361 1360 1365
1253 4 1366 1361 1362 1368
1254 4 1367 1361 1362 1368
1255 1 2110 2107 2108 2113
1256 1 2110 2107 2108 2114
1257 1 2111 2107 2108 2113
1258 1 2111 2107 2108 2114
1259 1 2112 2107 2108 2113
1260 1 2112 2107 2108 2114
1261 3 2152 2153 2154 2160
1262 2 2154 2153 2152 2155
1263 2 2154 2153 2152 2156
1264 2 2154 2153 2152 2157
1265 4 2158 2153 2154 2160
1266 4 2159 2153 2154 2160
1267 1 22 19 20 25
1268 1 22 19 20 26
1269 1 23 19 20 25
1270 1 23 19 20 26
1271 1 24 19 20 25
1272 1 24 19 20 26
1273 3 19 20 21 27
1274 2 21 20 19 22
1275 2 21 20 19 23
1276 2 21 20 19 24
1277 4 25 20 21 27
1278 4 26 20 21 27
1279 3 1153 1154 1155 1161
1280 2 1155 1154 1153 1156
1281 2 1155 1154 1153 1157
1282 2 1155 1154 1153 1158
1283 4 1159 1154 1155 1161
1284 4 1160 1154 1155 1161
1285 1 283 280 281 286
1286 1 283 280 281 287
1287 1 284 280 281 286
1288 1 284 280 281 287
1289 1 285 280 281 286
1290 1 285 280 281 287
1291 3 280 281 282 288
1292 2 282 281 280 283
1293 2 282 281 280 284
1294 2 282 281 280 285
1295 4 286 281 282 288
1296 4 287 281 282 288
1297 1 346 343 344 349
1298 1 346 343 344 350
1299 1 347 343 344 349
1300 1 347 343 344 350
1301 1 348 343 344 349
1302 1 348 343 344 350
1303 3 343 344 345 351
1304 2 345 344 343 346
1305 2 345 344 343 347
1306 2 345 344 343 348
1307 4 349 344 345 351
1308 4 350 344 345 351
1309 1 400 397 398 403
1310 1 400 397 398 404
1311 1 401 397 398 403
1312 1 401 397 398 404
1313 1 402 397 398 403
1314 1 402 397 398 404
1315 3 397 398 399 405
1316 2 399 398 397 400
1317 2 399 398 397 401
1318 2 399 398 397 402
1319 4 403 398 399 405
1320 4 404 398 399 405
1321 1 634 631 632 637
1322 1 634 631 632 638
1323 1 635 631 632 637
1324 1 635 631 632 638
1325 1 636 631 632 637
1326 1 636 631 632 638
1327 3 631 632 633 639
1328 2 633 632 631 634
1329 2 633 632 631 635
1330 2 633 632 631 636
1331 4 637 632 633 639
1332 4 638 632 633 639
1333 1 1651 1648 1649 1654
1334 1 1651 1648 1649 1655
1335 1 1652 1648 1649 1654
1336 1 1652 1648 1649 1655
1337 1 1653 1648 1649 1654
1338 1 1653 1648 1649 1655
1339 3 1648 1649 1650 1656
1340 2 1650 1649 1648 1651
1341 2 1650 1649 1648 1652
1342 2 1650 1649 1648 1653
1343 4 1654 1649 1650 1656
1344 4 1655 1649 1650 1656
1345 1 211 208 209 214
1346 1 211 208 209 215
1347 1 212 208 209 214
1348 1 212 208 209 215
1349 1 213 208 209 214
1350 1 213 208 209 215
1351 3 2170 2171 2172 2178
1352 2 2172 2171 2170 2173
1353 2 2172 2171 2170 2174
1354 2 2172 2171 2170 2175
1355 4 2176 2171 2172 2178
1356 4 2177 2171 2172 2178
1357 3 1252 1253 1254 1260
1358 2 1254 1253 1252 1255
1359 2 1254 1253 1252 1256
1360 2 1254 1253 1252 1257
1361 4 1258 1253 1254 1260
1362 4 1259 1253 1254 1260
1363 3 1279 1280 1281 1287
1364 2 1281 1280 1279 1282
1365 2 1281 1280 1279 1283
1366 2 1281 1280 1279 1284
1367 4 1285 1280 1281 1287
1368 4 1286 1280 1281 1287
1369 1 1354 1351 1352 1357
1370 1 1354 1351 1352 1358
1371 1 1355 1351 1352 1357
1372 1 1355 1351 1352 1358
1373 1 1356 1351 1352 1357
1374 1 1356 1351 1352 1358
1375 3 1351 1352 1353 1359
1376 2 1353 1352 1351 1354
1377 2 1353 1352 1351 1355
1378 2 1353 1352 1351 1356
1379 4 1357 1352 1353 1359
1380 4 1358 1352 1353 1359
1381 1 1426 1423 1424 1429
1382 1 1426 1423 1424 1430
1383 1 1427 1423 1424 1429
1384 1 1427 1423 1424 1430
1385 1 1428 1423 1424 1429
1386 1 1428 1423 1424 1430
1387 1 1777 1774 1775 1780
1388 1 1777 1774 1775 1781
1389 1 1778 1774 1775 1780
1390 1 1778 1774 1775 1781
1391 1 1779 1774 1775 1780
1392 1 1779 1774 1775 1781
1393 3 1774 1775 1776 1782
1394 2 1776 1775 1774 1777
1395 2 1776 1775 1774 1778
1396 2 1776 1775 1774 1779
1397 4 1780 1775 1776 1782
1398 4 1781 1775 1776 1782
1399 1 1966 1963 1964 1969
1400 1 1966 1963 1964 1970
1401 1 1967 1963 1964 1969
1402 1 1967 1963 1964 1970
1403 1 1968 1963 1964 1969
1404 1 1968 1963 1964 1970
1405 3 1981 1982 1983 1989
1406 2 1983 1982 1981 1984
1407 2 1983 1982 1981 1985
1408 2 1983 1982 1981 1986
1409 4 1987 1982 1983 1989
1410 4 1988 1982 1983 1989
1411 1 166 163 164 169
1412 1 166 163 164 170
1413 1 167 163 164 169
1414 1 167 163 164 170
1415 1 168 163 164 169
1416 1 168 163 164 170
1417 3 163 164 165 171
1418 2 165 164 163 166
1419 2 165 164 163 167
1420 2 165 164 163 168
1421 4 169 164 165 171
1422 4 170 164 165 171
1423 1 1138 1135 1136 1141
1424 1 1138 1135 1136 1142
1425 1 1139 1135 1136 1141
1426 1 1139 1135 1136 1142
1427 1 1140 1135 1136 1141
1428 1 1140 1135 1136 1142
1429 3 1135 1136 1137 1143
1430 2 1137 1136 1135 1138
1431 2 1137 1136 1135 1139
1432 2 1137 1136 1135 1140
1433 4 1141 1136 1137 1143
1434 4 1142 1136 1137 1143
1435 1 2146 2143 2144 2149
1436 1 2146 2143 2144 2150
1437 1 2147 2143 2144 2149
1438 1 2147 2143 2144 2150
1439 1 2148 2143 2144 2149
1440 1 2148 2143 2144 2150
1441 3 2143 2144 2145 2151
1442 2 2145 2144 2143 2146
1443 2 2145 2144 2143 2147
1444 2 2145 2144 2143 2148
1445 4 2149 2144 2145 2151
1446 4 2150 2144 2145 2151
1447 1 355 352 353 358
1448 1 355 352 353 359
1449 1 356 352 353 358
1450 1 356 352 353 359
1451 1 357 352 353 358
1452 1 357 352 353 359
1453 3 352 353 354 360
1454 2 354 353 352 355
1455 2 354 353 352 356
1456 2 354 353 352 357
1457 4 358 353 354 360
1458 4 359 353 354 360
1459 3 1 2 3 9
1460 2 3 2 1 4
1461 2 3 2 1 5
1462 2 3 2 1 6
1463 4 7 2 3 9
1464 4 8 2 3 9
1465 3 568 569 570 576
1466 2 570 569 568 571
1467 2 570 569 568 572
1468 2 570 569 568 573
1469 4 574 569 570 576
1470 4 575 569 570 576
1471 1 1156 1153 1154 1159
1472 1 1156 1153 1154 1160
1473 1 1157 1153 1154 1159
1474 1 1157 1153 1154 1160
1475 1 1158 1153 1154 1159
1476 1 1158 1153 1154 1160
1477 3 1963 1964 1965 1971
1478 2 1965 1964 1963 1966
1479 2 1965 1964 1963 1967
1480 2 1965 1964 1963 1968
1481 4 1969 1964 1965 1971
1482 4 1970 1964 1965 1971
1483 1 1282 1279 1280 1285
1484 1 1282 1279 1280 1286
1485 1 1283 1279 1280 1285
1486 1 1283 1279 1280 1286
1487 1 1284 1279 1280 1285
1488 1 1284 1279 1280 1286
1489 1 1390 1387 1388 1393
1490 1 1390 1387 1388 1394
1491 1 1391 1387 1388 1393
1492 1 1391 1387 1388 1394
1493 1 1392 1387 1388 1393
1494 1 1392 1387 1388 1394
1495 3 1387 1388 1389 1395
1496 2 1389 1388 1387 1390
1497 2 1389 1388 1387 1391
1498 2 1389 1388 1387 1392
1499 4 1393 1388 1389 1395
1500 4 1394 1388 1389 1395
1501 1 2173 2170 2171 2176
1502 1 2173 2170 2171 2177
1503 1 2174 2170 2171 2176
1504 1 2174 2170 2171 2177
1505 1 2175 2170 2171 2176
1506 1 2175 2170 2171 2177
1507 3 2161 2162 2163 2169
1508 2 2163 2162 2161 2164
1509 2 2163 2162 2161 2165
1510 2 2163 2162 2161 2166
1511 4 2167 2162 2163 2169
1512 4 2168 2162 2163 2169
1513 1 364 361 362 367
1514 1 364 361 362 368
1515 1 365 361 362 367
1516 1 365 361 362 368
1517 1 366 361 362 367
1518 1 366 361 362 368
1519 3 361 362 363 369
1520 2 363 362 361 364
1521 2 363 362 361 365
1522 2 363 362 361 366
1523 4 367 362 363 369
1524 4 368 362 363 369
1525 1 391 388 389 394
1526 1 391 388 389 395
1527 1 392 388 389 394
1528 1 392 388 389 395
1529 1 393 388 389 394
1530 1 393 388 389 395
1531 3 388 389 390 396
1532 2 390 389 388 391
1533 2 390 389 388 392
1534 2 390 389 388 393
1535 4 394 389 390 396
1536 4 395 389 390 396
1537 3 505 506 507 513
1538 2 507 506 505 508
1539 2 507 506 505 509
1540 2 507 506 505 510
1541 4 511 506 507 513
1542 4 512 506 507 513
1543 3 1711 1712 1713 1719
1544 2 1713 1712 1711 1714
1545 2 1713 1712 1711 1715
1546 2 1713 1712 1711 1716
1547 4 1717 1712 1713 1719
1548 4 1718 1712 1713 1719
1549 1 553 550 551 556
1550 1 553 550 551 557
1551 1 554 550 551 556
1552 1 554 550 551 557
1553 1 555 550 551 556
1554 1 555 550 551 557
1555 3 550 551 552 558
1556 2 552 551 550 553
1557 2 552 551 550 554
1558 2 552 551 550 555
1559 4 556 551 552 558
1560 4 557 551 552 558
1561 1 2047 2044 2045 2050
1562 1 2047 2044 2045 2051
1563 1 2048 2044 2045 2050
1564 1 2048 2044 2045 2051
1565 1 2049 2044 2045 2050
1566 1 2049 2044 2045 2051
1567 3 2044 2045 2046 2052
1568 2 2046 2045 2044 2047
1569 2 2046 2045 2044 2048
1570 2 2046 2045 2044 2049
1571 4 2050 2045 2046 2052
1572 4 2051 2045 2046 2052
1573 1 274 271 272 277
1574 1 274 271 272 278
1575 1 275 271 272 277
1576 1 275 271 272 278
1577 1 276 271 272 277
1578 1 276 271 272 278
1579 3 271 272 273 279
1580 2 273 272 271 274
1581 2 273 272 271 275
1582 2 273 272 271 276
1583 4 277 272 273 279
1584 4 278 272 273 279
1585 1 526 523 524 529
1586 1 526 523 524 530
1587 1 527 523 524 529
1588 1 527 523 524 530
1589 1 528 523 524 529
1590 1 528 523 524 530
1591 3 523 524 525 531
1592 2 525 524 523 526
1593 2 525 524 523 527
1594 2 525 524 523 528
1595 4 529 524 525 531
1596 4 530 524 525 531
1597 1 1048 1045 1046 1051
1598 1 1048 1045 1046 1052
1599 1 1049 1045 1046 1051
1600 1 1049 1045 1046 1052
1601 1 1050 1045 1046 1051
1602 1 1050 1045 1046 1052
1603 3 1045 1046 1047 1053
1604 2 1047 1046 1045 1048
1605 2 1047 1046 1045 1049
1606 2 1047 1046 1045 1050
1607 4 1051 1046 1047 1053
1608 4 1052 1046 1047 1053
1609 1 1687 1684 1685 1690
1610 1 1687 1684 1685 1691
1611 1 1688 1684 1685 1690
1612 1 1688 1684 1685 1691
1613 1 1689 1684 1685 1690
1614 1 1689 1684 1685 1691
1615 3 1684 1685 1686 1692
1616 2 1686 1685 1684 1687
1617 2 1686 1685 1684 1688
1618 2 1686 1685 1684 1689
1619 4 1690 1685 1686 1692
1620 4 1691 1685 1686 1692
1621 1 2182 2179 2180 2185
1622 1 2182 2179 2180 2186
1623 1 2183 2179 2180 2185
1624 1 2183 2179 2180 2186
1625 1 2184 2179 2180 2185
1626 1 2184 2179 2180 2186
1627 3 28 29 30 36
1628 2 30 29 28 31
1629 2 30 29 28 32
1630 2 30 29 28 33
1631 4 34 29 30 36
1632 4 35 29 30 36
1633 1 616 613 614 619
1634 1 616 613 614 620
1635 1 617 613 614 619
1636 1 617 613 614 620
1637 1 618 613 614 619
1638 1 618 613 614 620
1639 3 613 614 615 621
1640 2 615 614 613 616
1641 2 615 614 613 617
1642 2 615 614 613 618
1643 4 619 614 615 621
1644 4 620 614 615 621
1645 1 1714 1711 1712 1717
1646 1 1714 1711 1712 1718
1647 1 1715 1711 1712 1717
1648 1 1715 1711 1712 1718
1649 1 1716 1711 1712 1717
1650 1 1716 1711 1712 1718
1651 3 856 857 858 864
1652 2 858 857 856 859
1653 2 858 857 856 860
1654 2 858 857 856 861
1655 4 862 857 858 864
1656 4 863 857 858 864
1657 3 919 920 921 927
1658 2 921 920 919 922
1659 2 921 920 919 923
1660 2 921 920 919 924
1661 4 925 920 921 927
1662 4 926 920 921 927
1663 3 460 461 462 468
1664 2 462 461 460 463
1665 2 462 461 460 464
1666 2 462 461 460 465
1667 4 466 461 462 468
1668 4 467 461 462 468
1669 3 2179 2180 2181 2187
1670 2 2181 2180 2179 2182
1671 2 2181 2180 2179 2183
1672 2 2181 2180 2179 2184
1673 4 2185 2180 2181 2187
1674 4 2186 2180 2181 2187
1675 3 1585 1586 1587 1593
1676 2 1587 1586 1585 1588
1677 2 1587 1586 1585 1589
1678 2 1587 1586 1585 1590
1679 4 1591 1586 1587 1593
1680 4 1592 1586 1587 1593
1681 1 1705 1702 1703 1708
1682 1 1705 1702 1703 1709
1683 1 1706 1702 1703 1708
1684 1 1706 1702 1703 1709
1685 1 1707 1702 1703 1708
1686 1 1707 1702 1703 1709
1687 1 1894 1891 1892 1897
1688 1 1894 1891 1892 1898
1689 1 1895 1891 1892 1897
1690 1 1895 1891 1892 1898
1691 1 1896 1891 1892 1897
1692 1 1896 1891 1892 1898
1693 3 1891 1892 1893 1899
1694 2 1893 1892 1891 1894
1695 2 1893 1892 1891 1895
1696 2 1893 1892 1891 1896
1697 4 1897 1892 1893 1899
1698 4 1898 1892 1893 1899
1699 1 112 109 110 115
1700 1 112 109 110 116
1701 1 113 109 110 115
1702 1 113 109 110 116
1703 1 114 109 110 115
1704 1 114 109 110 116
1705 3 109 110 111 117
1706 2 111 110 109 112
1707 2 111 110 109 113
1708 2 111 110 109 114
1709 4 115 110 111 117
1710 4 116 110 111 117
1711 1 409 406 407 412
1712 1 409 406 407 413
1713 1 410 406 407 412
1714 1 410 406 407 413
1715 1 411 406 407 412
1716 1 411 406 407 413
1717 3 406 407 408 414
1718 2 408 407 406 409
1719 2 408 407 406 410
1720 2 408 407 406 411
1721 4 412 407 408 414
1722 4 413 407 408 414
1723 1 1336 1333 1334 1339
1724 1 1336 1333 1334 1340
1725 1 1337 1333 1334 1339
1726 1 1337 1333 1334 1340
1727 1 1338 1333 1334 1339
1728 1 1338 1333 1334 1340
1729 1 1588 1585 1586 1591
1730 1 1588 1585 1586 1592
1731 1 1589 1585 1586 1591
1732 1 1589 1585 1586 1592
1733 1 1590 1585 1586 1591
1734 1 1590 1585 1586 1592
1735 3 1333 1334 1335 1341
1736 2 1335 1334 1333 1336
1737 2 1335 1334 1333 1337
1738 2 1335 1334 1333 1338
1739 4 1339 1334 1335 1341
1740 4 1340 1334 1335 1341
1741 1 1750 1747 1748 1753
1742 1 1750 1747 1748 1754
1743 1 1751 1747 1748 1753
1744 1 1751 1747 1748 1754
1745 1 1752 1747 1748 1753
1746 1 1752 1747 1748 1754
1747 3 1747 1748 1749 1755
1748 2 1749 1748 1747 1750
1749 2 1749 1748 1747 1751
1750 2 1749 1748 1747 1752
1751 4 1753 1748 1749 1755
1752 4 1754 1748 1749 1755
1753 1 31 28 29 34
1754 1 31 28 29 35
1755 1 32 28 29 34
1756 1 32 28 29 35
1757 1 33 28 29 34
1758 1 33 28 29 35
1759 1 2011 2008 2009 2014
1760 1 2011 2008 2009 2015
1761 1 2012 2008 2009 2014
1762 1 2012 2008 2009 2015
1763 1 2013 2008 2009 2014
1764 1 2013 2008 2009 2015
1765 3 2008 2009 2010 2016
1766 2 2010 2009 2008 2011
1767 2 2010 2009 2008 2012
1768 2 2010 2009 2008 2013
1769 4 2014 2009 2010 2016
1770 4 2015 2009 2010 2016
1771 1 2029 2026 2027 2032
1772 1 2029 2026 2027 2033
1773 1 2030 2026 2027 2032
1774 1 2030 2026 2027 2033
1775 1 2031 2026 2027 2032
1776 1 2031 2026 2027 2033
1777 3 2026 2027 2028 2034
1778 2 2028 2027 2026 2029
1779 2 2028 2027 2026 2030
1780 2 2028 2027 2026 2031
1781 4 2032 2027 2028 2034
1782 4 2033 2027 2028 2034
1783 1 922 919 920 925
1784 1 922 919 920 926
1785 1 923 919 920 925
1786 1 923 919 920 926
1787 1 924 919 920 925
1788 1 924 919 920 926
1789 1 508 505 506 511
1790 1 508 505 506 512
1791 1 509 505 506 511
1792 1 509 505 506 512
1793 1 510 505 506 511
1794 1 510 505 506 512
1795 1 157 154 155 160
1796 1 157 154 155 161
1797 1 158 154 155 160
1798 1 158 154 155 161
1799 1 159 154 155 160
1800 1 159 154 155 161
1801 3 154 155 156 162
1802 2 156 155 154 157
1803 2 156 155 154 158
1804 2 156 155 154 159
1805 4 160 155 156 162
1806 4 161 155 156 162
1807 3 487 488 489 495
1808 2 489 488 487 490
1809 2 489 488 487 491
1810 2 489 488 487 492
1811 4 493 488 489 495
1812 4 494 488 489 495
1813 1 652 649 650 655
1814 1 652 649 650 656
1815 1 653 649 650 655
1816 1 653 649 650 656
1817 1 654 649 650 655
1818 1 654 649 650 656
1819 3 649 650 651 657
1820 2 651 650 649 652
1821 2 651 650 649 653
1822 2 651 650 649 654
1823 4 655 650 651 657
1824 4 656 650 651 657
1825 1 841 838 839 844
1826 1 841 838 839 845
1827 1 842 838 839 844
1828 1 842 838 839 845
1829 1 843 838 839 844
1830 1 843 838 839 845
1831 3 838 839 840 846
1832 2 840 839 838 841
1833 2 840 839 838 842
1834 2 840 839 838 843
1835 4 844 839 840 846
1836 4 845 839 840 846
1837 1 868 865 866 871
1838 1 868 865 866 872
1839 1 869 865 866 871
1840 1 869 865 866 872
1841 1 870 865 866 871
1842 1 870 865 866 872
1843 3 865 866 867 873
1844 2 867 866 865 868
1845 2 867 866 865 869
1846 2 867 866 865 870
1847 4 871 866 867 873
1848 4 872 866 867 873
1849 1 2128 2125 2126 2131
1850 1 2128 2125 2126 2132
1851 1 2129 2125 2126 2131
1852 1 2129 2125 2126 2132
1853 1 2130 2125 2126 2131
1854 1 2130 2125 2126 2132
1855 1 823 820 821 826
1856 1 823 820 821 827
1857 1 824 820 821 826
1858 1 824 820 821 827
1859 1 825 820 821 826
1860 1 825 820 821 827
1861 3 820 821 822 828
1862 2 822 821 820 823
1863 2 822 821 820 824
1864 2 822 821 820 825
1865 4 826 821 822 828
1866 4 827 821 822 828
1867 1 931 928 929 934
1868 1 931 928 929 935
1869 1 932 928 929 934
1870 1 932 928 929 935
1871 1 933 928 929 934
1872 1 933 928 929 935
1873 3 928 929 930 936
1874 2 930 929 928 931
1875 2 930 929 928 932
1876 2 930 929 928 933
1877 4 934 929 930 936
1878 4 935 929 930 936
1879 1 1507 1504 1505 1510
1880 1 1507 1504 1505 1511
1881 1 1508 1504 1505 1510
1882 1 1508 1504 1505 1511
1883 1 1509 1504 1505 1510
1884 1 1509 1504 1505 1511
1885 3 1504 1505 1506 1512
1886 2 1506 1505 1504 1507
1887 2 1506 1505 1504 1508
1888 2 1506 1505 1504 1509
1889 4 1510 1505 1506 1512
1890 4 1511 1505 1506 1512
1891 1 1660 1657 1658 1663
1892 1 1660 1657 1658 1664
1893 1 1661 1657 1658 1663
1894 1 1661 1657 1658 1664
1895 1 1662 1657 1658 1663
1896 1 1662 1657 1658 1664
1897 3 1765 1766 1767 1773
1898 2 1767 1766 1765 1768
1899 2 1767 1766 1765 1769
1900 2 1767 1766 1765 1770
1901 4 1771 1766 1767 1773
1902 4 1772 1766 1767 1773
1903 3 1027 1028 1029 1035
1904 2 1029 1028 1027 1030
1905 2 1029 1028 1027 1031
1906 2 1029 1028 1027 1032
1907 4 1033 1028 1029 1035
1908 4 1034 1028 1029 1035
1909 3 847 848 849 855
1910 2 849 848 847 850
1911 2 849 848 847 851
1912 2 849 848 847 852
1913 4 853 848 849 855
1914 4 854 848 849 855
1915 3 199 200 201 207
1916 2 201 200 199 202
1917 2 201 200 199 203
1918 2 201 200 199 204
1919 4 205 200 201 207
1920 4 206 200 201 207
1921 1 913 910 911 916
1922 1 913 910 911 917
1923 1 914 910 911 916
1924 1 914 910 911 917
1925 1 915 910 911 916
1926 1 915 910 911 917
1927 3 910 911 912 918
1928 2 912 911 910 913
1929 2 912 911 910 914
1930 2 912 911 910 915
1931 4 916 911 912 918
1932 4 917 911 912 918
1933 1 1768 1765 1766 1771
1934 1 1768 1765 1766 1772
1935 1 1769 1765 1766 1771
1936 1 1769 1765 1766 1772
1937 1 1770 1765 1766 1771
1938 1 1770 1765 1766 1772
1939 3 946 947 948 954
1940 2 948 947 946 949
1941 2 948 947 946 950
1942 2 948 947 946 951
1943 4 952 947 948 954
1944 4 953 947 948 954
1945 1 1030 1027 1028 1033
1946 1 1030 1027 1028 1034
1947 1 1031 1027 1028 1033
1948 1 1031 1027 1028 1034
1949 1 1032 1027 1028 1033
1950 1 1032 1027 1028 1034
1951 1 1732 1729 1730 1735
1952 1 1732 1729 1730 1736
1953 1 1733 1729 1730 1735
1954 1 1733 1729 1730 1736
1955 1 1734 1729 1730 1735
1956 1 1734 1729 1730 1736
1957 3 1729 1730 1731 1737
1958 2 1731 1730 1729 1732
1959 2 1731 1730 1729 1733
1960 2 1731 1730 1729 1734
1961 4 1735 1730 1731 1737
1962 4 1736 1730 1731 1737
1963 1 2002 1999 2000 2005
1964 1 2002 1999 2000 2006
1965 1 2003 1999 2000 2005
1966 1 2003 1999 2000 2006
1967 1 2004 1999 2000 2005
1968 1 2004 1999 2000 2006
1969 1 1759 1756 1757 1762
1970 1 1759 1756 1757 1763
1971 1 1760 1756 1757 1762
1972 1 1760 1756 1757 1763
1973 1 1761 1756 1757 1762
1974 1 1761 1756 1757 1763
1975 3 1756 1757 1758 1764
1976 2 1758 1757 1756 1759
1977 2 1758 1757 1756 1760
1978 2 1758 1757 1756 1761
1979 4 1762 1757 1758 1764
1980 4 1763 1757 1758 1764
1981 3 2125 2126 2127 2133
1982 2 2127 2126 2125 2128
1983 2 2127 2126 2125 2129
1984 2 2127 2126 2125 2130
1985 4 2131 2126 2127 2133
1986 4 2132 2126 2127 2133
1987 1 2074 2071 2072 2077
1988 1 2074 2071 2072 2078
1989 1 2075 2071 2072 2077
1990 1 2075 2071 2072 2078
1991 1 2076 2071 2072 2077
1992 1 2076 2071 2072 2078
1993 3 2071 2072 2073 2079
1994 2 2073 2072 2071 2074
1995 2 2073 2072 2071 2075
1996 2 2073 2072 2071 2076
1997 4 2077 2072 2073 2079
1998 4 2078 2072 2073 2079
1999 1 2119 2116 2117 2122
2000 1 2119 2116 2117 2123
2001 1 2120 2116 2117 2122
2002 1 2120 2116 2117 2123
2003 1 2121 2116 2117 2122
2004 1 2121 2116 2117 2123
2005 3 2116 2117 2118 2124
2006 2 2118 2117 2116 2119
2007 2 2118 2117 2116 2120
2008 2 2118 2117 2116 2121
2009 4 2122 2117 2118 2124
2010 4 2123 2117 2118 2124
2011 1 76 73 74 79
2012 1 76 73 74 80
2013 1 77 73 74 79
2014 1 77 73 74 80
2015 1 78 73 74 79
2016 1 78 73 74 80
2017 3 73 74 75 81
2018 2 75 74 73 76
2019 2 75 74 73 77
2020 2 75 74 73 78
2021 4 79 74 75 81
2022 4 80 74 75 81
2023 3 100 101 102 108
2024 2 102 101 100 103
2025 2 102 101 100 104
2026 2 102 101 100 105
2027 4 106 101 102 108
2028 4 107 101 102 108
2029 1 688 685 686 691
2030 1 688 685 686 692
2031 1 689 685 686 691
2032 1 689 685 686 692
2033 1 690 685 686 691
2034 1 690 685 686 692
2035 3 685 686 687 693
2036 2 687 686 685 688
2037 2 687 686 685 689
2038 2 687 686 685 690
2039 4 691 686 687 693
2040 4 692 686 687 693
2041 1 1867 1864 1865 1870
2042 1 1867 1864 1865 1871
2043 1 1868 1864 1865 1870
2044 1 1868 1864 1865 1871
2045 1 1869 1864 1865 1870
2046 1 1869 1864 1865 1871
2047 1 814 811 812 817
2048 1 814 811 812 818
2049 1 815 811 812 817
2050 1 815 811 812 818
2051 1 816 811 812 817
2052 1 816 811 812 818
2053 3 1657 1658 1659 1665
2054 2 1659 1658 1657 1660
2055 2 1659 1658 1657 1661
2056 2 1659 1658 1657 1662
2057 4 1663 1658 1659 1665
2058 4 1664 1658 1659 1665
2059 3 1999 2000 2001 2007
2060 2 2001 2000 1999 2002
2061 2 2001 2000 1999 2003
2062 2 2001 2000 1999 2004
2063 4 2005 2000 2001 2007
2064 4 2006 2000 2001 2007
2065 1 850 847 848 853
2066 1 850 847 848 854
2067 1 851 847 848 853
2068 1 851 847 848 854
2069 1 852 847 848 853
2070 1 852 847 848 854
2071 1 625 622 623 628
2072 1 625 622 623 629
2073 1 626 622 623 628
2074 1 626 622 623 629
2075 1 627 622 623 628
2076 1 627 622 623 629
2077 3 622 623 624 630
2078 2 624 623 622 625
2079 2 624 623 622 626
2080 2 624 623 622 627
2081 4 628 623 624 630
2082 4 629 623 624 630
2083 1 1624 1621 1622 1627
2084 1 1624 1621 1622 1628
2085 1 1625 1621 1622 1627
2086 1 1625 1621 1622 1628
2087 1 1626 1621 1622 1627
2088 1 1626 1621 1622 1628
2089 1 697 694 695 700
2090 1 697 694 695 701
2091 1 698 694 695 700
2092 1 698 694 695 701
2093 1 699 694 695 700
2094 1 699 694 695 701
2095 3 694 695 696 702
2096 2 696 695 694 697
2097 2 696 695 694 698
2098 2 696 695 694 699
2099 4 700 695 696 702
2100 4 701 695 696 702
2101 3 1621 1622 1623 1629
2102 2 1623 1622 1621 1624
2103 2 1623 1622 1621 1625
2104 2 1623 1622 1621 1626
2105 4 1627 1622 1623 1629
2106 4 1628 1622 1623 1629
2107 1 895 892 893 898
2108 1 895 892 893 899
2109 1 896 892 893 898
2110 1 896 892 893 899
2111 1 897 892 893 898
2112 1 897 892 893 899
2113 3 892 893 894 900
2114 2 894 893 892 895
2115 2 894 893 892 896
2116 2 894 893 892 897
2117 4 898 893 894 900
2118 4 899 893 894 900
2119 1 1165 1162 1163 1168
2120 1 1165 1162 1163 1169
2121 1 1166 1162 1163 1168
2122 1 1166 1162 1163 1169
2123 1 1167 1162 1163 1168
2124 1 1167 1162 1163 1169
2125 1 1669 1666 1667 1672
2126 1 1669 1666 1667 1673
2127 1 1670 1666 1667 1672
2128 1 1670 1666 1667 1673
2129 1 1671 1666 1667 1672
2130 1 1671 1666 1667 1673
2131 3 1666 1667 1668 1674
2132 2 1668 1667 1666 1669
2133 2 1668 1667 1666 1670
2134 2 1668 1667 1666 1671
2135 4 1672 1667 1668 1674
2136 4 1673 1667 1668 1674
2137 1 1102 1099 1100 1105
2138 1 1102 1099 1100 1106
2139 1 1103 1099 1100 1105
2140 1 1103 1099 1100 1106
2141 1 1104 1099 1100 1105
2142 1 1104 1099 1100 1106
2143 1 1237 1234 1235 1240
2144 1 1237 1234 1235 1241
2145 1 1238 1234 1235 1240
2146 1 1238 1234 1235 1241
2147 1 1239 1234 1235 1240
2148 1 1239 1234 1235 1241
2149 3 1234 1235 1236 1242
2150 2 1236 1235 1234 1237
2151 2 1236 1235 1234 1238
2152 2 1236 1235 1234 1239
2153 4 1240 1235 1236 1242
2154 4 1241 1235 1236 1242
2155 1 1642 1639 1640 1645
2156 1 1642 1639 1640 1646
2157 1 1643 1639 1640 1645
2158 1 1643 1639 1640 1646
2159 1 1644 1639 1640 1645
2160 1 1644 1639 1640 1646
2161 3 1639 1640 1641 1647
2162 2 1641 1640 1639 1642
2163 2 1641 1640 1639 1643
2164 2 1641 1640 1639 1644
2165 4 1645 1640 1641 1647
2166 4 1646 1640 1641 1647
2167 1 94 91 92 97
2168 1 94 91 92 98
2169 1 95 91 92 97
2170 1 95 91 92 98
2171 1 96 91 92 97
2172 1 96 91 92 98
2173 3 1864 1865 1866 1872
2174 2 1866 1865 1864 1867
2175 2 1866 1865 1864 1868
2176 2 1866 1865 1864 1869
2177 4 1870 1865 1866 1872
2178 4 1871 1865 1866 1872
2179 3 91 92 93 99
2180 2 93 92 91 94
2181 2 93 92 91 95
2182 2 93 92 91 96
2183 4 97 92 93 99
2184 4 98 92 93 99
2185 1 175 172 173 178
2186 1 175 172 173 179
2187 1 176 172 173 178
2188 1 176 172 173 179
2189 1 177 172 173 178
2190 1 177 172 173 179
2191 3 172 173 174 180
2192 2 174 173 172 175
2193 2 174 173 172 176
2194 2 174 173 172 177
2195 4 178 173 174 180
2196 4 179 173 174 180
2197 1 319 316 317 322
2198 1 319 316 317 323
2199 1 320 316 317 322
2200 1 320 316 317 323
2201 1 321 316 317 322
2202 1 321 316 317 323
2203 3 316 317 318 324
2204 2 318 317 316 319
2205 2 318 317 316 320
2206 2 318 317 316 321
2207 4 322 317 318 324
2208 4 323 317 318 324
2209 1 742 739 740 745
2210 1 742 739 740 746
2211 1 743 739 740 745
2212 1 743 739 740 746
2213 1 744 739 740 745
2214 1 744 739 740 746
2215 3 739 740 741 747
2216 2 741 740 739 742
2217 2 741 740 739 743
2218 2 741 740 739 744
2219 4 745 740 741 747
2220 4 746 740 741 747
2221 1 1066 1063 1064 1069
2222 1 1066 1063 1064 1070
2223 1 1067 1063 1064 1069
2224 1 1067 1063 1064 1070
2225 1 1068 1063 1064 1069
2226 1 1068 1063 1064 1070
2227 3 1063 1064 1065 1071
2228 2 1065 1064 1063 1066
2229 2 1065 1064 1063 1067
2230 2 1065 1064 1063 1068
2231 4 1069 1064 1065 1071
2232 4 1070 1064 1065 1071
2233 1 1084 1081 1082 1087
2234 1 1084 1081 1082 1088
2235 1 1085 1081 1082 1087
2236 1 1085 1081 1082 1088
2237 1 1086 1081 1082 1087
2238 1 1086 1081 1082 1088
2239 3 1081 1082 1083 1089
2240 2 1083 1082 1081 1084
2241 2 1083 1082 1081 1085
2242 2 1083 1082 1081 1086
2243 4 1087 1082 1083 1089
2244 4 1088 1082 1083 1089
2245 1 40 37 38 43
2246 1 40 37 38 44
2247 1 41 37 38 43
2248 1 41 37 38 44
2249 1 42 37 38 43
2250 1 42 37 38 44
2251 3 37 38 39 45
2252 2 39 38 37 40
2253 2 39 38 37 41
2254 2 39 38 37 42
2255 4 43 38 39 45
2256 4 44 38 39 45
2257 1 598 595 596 601
2258 1 598 595 596 602
2259 1 599 595 596 601
2260 1 599 595 596 602
2261 1 600 595 596 601
2262 1 600 595 596 602
2263 3 595 596 597 603
2264 2 597 596 595 598
2265 2 597 596 595 599
2266 2 597 596 595 600
2267 4 601 596 597 603
2268 4 602 596 597 603
2269 3 811 812 813 819
2270 2 813 812 811 814
2271 2 813 812 811 815
2272 2 813 812 811 816
2273 4 817 812 813 819
2274 4 818 812 813 819
2275 1 1408 1405 1406 1411
2276 1 1408 1405 1406 1412
2277 1 1409 1405 1406 1411
2278 1 1409 1405 1406 1412
2279 1 1410 1405 1406 1411
2280 1 1410 1405 1406 1412
2281 3 1099 1100 1101 1107
2282 2 1101 1100 1099 1102
2283 2 1101 1100 1099 1103
2284 2 1101 1100 1099 1104
2285 4 1105 1100 1101 1107
2286 4 1106 1100 1101 1107
2287 3 1297 1298 1299 1305
2288 2 1299 1298 1297 1300
2289 2 1299 1298 1297 1301
2290 2 1299 1298 1297 1302
2291 4 1303 1298 1299 1305
2292 4 1304 1298 1299 1305
2293 1 2056 2053 2054 2059
2294 1 2056 2053 2054 2060
2295 1 2057 2053 2054 2059
2296 1 2057 2053 2054 2060
2297 1 2058 2053 2054 2059
2298 1 2058 2053 2054 2060
2299 3 2053 2054 2055 2061
2300 2 2055 2054 2053 2056
2301 2 2055 2054 2053 2057
2302 2 2055 2054 2053 2058
2303 4 2059 2054 2055 2061
2304 4 2060 2054 2055 2061
2305 1 490 487 488 493
2306 1 490 487 488 494
2307 1 491 487 488 493
2308 1 491 487 488 494
2309 1 492 487 488 493
2310 1 492 487 488 494
2311 1 1300 1297 1298 1303
2312 1 1300 1297 1298 1304
2313 1 1301 1297 1298 1303
2314 1 1301 1297 1298 1304
2315 1 1302 1297 1298 1303
2316 1 1302 1297 1298 1304
2317 1 1534 1531 1532 1537
2318 1 1534 1531 1532 1538
2319 1 1535 1531 1532 1537
2320 1 1535 1531 1532 1538
2321 1 1536 1531 1532 1537
2322 1 1536 1531 1532 1538
2323 1 1147 1144 1145 1150
2324 1 1147 1144 1145 1151
2325 1 1148 1144 1145 1150
2326 1 1148 1144 1145 1151
2327 1 1149 1144 1145 1150
2328 1 1149 1144 1145 1151
2329 1 238 235 236 241
2330 1 238 235 236 242
2331 1 239 235 236 241
2332 1 239 235 236 242
2333 1 240 235 236 241
2334 1 240 235 236 242
2335 1 805 802 803 808
2336 1 805 802 803 809
2337 1 806 802 803 808
2338 1 806 802 803 809
2339 1 807 802 803 808
2340 1 807 802 803 809
2341 1 1021 1018 1019 1024
2342 1 1021 1018 1019 1025
2343 1 1022 1018 1019 1024
2344 1 1022 1018 1019 1025
2345 1 1023 1018 1019 1024
2346 1 1023 1018 1019 1025
2347 1 2137 2134 2135 2140
2348 1 2137 2134 2135 2141
2349 1 2138 2134 2135 2140
2350 1 2138 2134 2135 2141
2351 1 2139 2134 2135 2140
2352 1 2139 2134 2135 2141
2353 3 1702 1703 1704 1710
2354 2 1704 1703 1702 1705
2355 2 1704 1703 1702 1706
2356 2 1704 1703 1702 1707
2357 4 1708 1703 1704 1710
2358 4 1709 1703 1704 1710
2359 3 1090 1091 1092 1098
2360 2 1092 1091 1090 1093
2361 2 1092 1091 1090 1094
2362 2 1092 1091 1090 1095
2363 4 1096 1091 1092 1098
2364 4 1097 1091 1092 1098
2365 3 2134 2135 2136 2142
2366 2 2136 2135 2134 2137
2367 2 2136 2135 2134 2138
2368 2 2136 2135 2134 2139
2369 4 2140 2135 2136 2142
2370 4 2141 2135 2136 2142
2371 1 1471 1468 1469 1474
2372 1 1471 1468 1469 1475
2373 1 1472 1468 1469 1474
2374 1 1472 1468 1469 1475
2375 1 1473 1468 1469 1474
2376 1 1473 1468 1469 1475
2377 3 1468 1469 1470 1476
2378 2 1470 1469 1468 1471
2379 2 1470 1469 1468 1472
2380 2 1470 1469 1468 1473
2381 4 1474 1469 1470 1476
2382 4 1475 1469 1470 1476
2383 1 1498 1495 1496 1501
2384 1 1498 1495 1496 1502
2385 1 1499 1495 1496 1501
2386 1 1499 1495 1496 1502
2387 1 1500 1495 1496 1501
2388 1 1500 1495 1496 1502
2389 3 1837 1838 1839 1845
2390 2 1839 1838 1837 1840
2391 2 1839 1838 1837 1841
2392 2 1839 1838 1837 1842
2393 4 1843 1838 1839 1845
2394 4 1844 1838 1839 1845
2395 1 1993 1990 1991 1996
2396 1 1993 1990 1991 1997
2397 1 1994 1990 1991 1996
2398 1 1994 1990 1991 1997
2399 1 1995 1990 1991 1996
2400 1 1995 1990 1991 1997
2401 3 1990 1991 1992 1998
2402 2 1992 1991 1990 1993
2403 2 1992 1991 1990 1994
2404 2 1992 1991 1990 1995
2405 4 1996 1991 1992 1998
2406 4 1997 1991 1992 1998
2407 3 235 236 237 243
2408 2 237 236 235 238
2409 2 237 236 235 239
2410 2 237 236 235 240
2411 4 241 236 237 243
2412 4 242 236 237 243
2413 3 802 803 804 810
2414 2 804 803 802 805
2415 2 804 803 802 806
2416 2 804 803 802 807
2417 4 808 803 804 810
2418 4 809 803 804 810
2419 1 1192 1189 1190 1195
2420 1 1192 1189 1190 1196
2421 1 1193 1189 1190 1195
2422 1 1193 1189 1190 1196
2423 1 1194 1189 1190 1195
2424 1 1194 1189 1190 1196
2425 3 1189 1190 1191 1197
2426 2 1191 1190 1189 1192
2427 2 1191 1190 1189 1193
2428 2 1191 1190 1189 1194
2429 4 1195 1190 1191 1197
2430 4 1196 1190 1191 1197
2431 3 1441 1442 1443 1449
2432 2 1443 1442 1441 1444
2433 2 1443 1442 1441 1445
2434 2 1443 1442 1441 1446
2435 4 1447 1442 1443 1449
2436 4 1448 1442 1443 1449
2437 3 325 326 327 333
2438 2 327 326 325 328
2439 2 327 326 325 329
2440 2 327 326 325 330
2441 4 331 326 327 333
2442 4 332 326 327 333
2443 3 730 731 732 738
2444 2 732 731 730 733
2445 2 732 731 730 734
2446 2 732 731 730 735
2447 4 736 731 732 738
2448 4 737 731 732 738
2449 1 1840 1837 1838 1843
2450 1 1840 1837 1838 1844
2451 1 1841 1837 1838 1843
2452 1 1841 1837 1838 1844
2453 1 1842 1837 1838 1843
2454 1 1842 1837 1838 1844
2455 1 859 856 857 862
2456 1 859 856 857 863
2457 1 860 856 857 862
2458 1 860 856 857 863
2459 1 861 856 857 862
2460 1 861 856 857 863
2461 1 85 82 83 88
2462 1 85 82 83 89
2463 1 86 82 83 88
2464 1 86 82 83 89
2465 1 87 82 83 88
2466 1 87 82 83 89
2467 3 82 83 84 90
2468 2 84 83 82 85
2469 2 84 83 82 86
2470 2 84 83 82 87
2471 4 88 83 84 90
2472 4 89 83 84 90
2473 1 328 325 326 331
2474 1 328 325 326 332
2475 1 329 325 326 331
2476 1 329 325 326 332
2477 1 330 325 326 331
2478 1 330 325 326 332
2479 3 1495 1496 1497 1503
2480 2 1497 1496 1495 1498
2481 2 1497 1496 1495 1499
2482 2 1497 1496 1495 1500
2483 4 1501 1496 1497 1503
2484 4 1502 1496 1497 1503
2485 1 1525 1522 1523 1528
2486 1 1525 1522 1523 1529
2487 1 1526 1522 1523 1528
2488 1 1526 1522 1523 1529
2489 1 1527 1522 1523 1528
2490 1 1527 1522 1523 1529
2491 3 1522 1523 1524 1530
2492 2 1524 1523 1522 1525
2493 2 1524 1523 1522 1526
2494 2 1524 1523 1522 1527
2495 4 1528 1523 1524 1530
2496 4 1529 1523 1524 1530
2497 1 1723 1720 1721 1726
2498 1 1723 1720 1721 1727
2499 1 1724 1720 1721 1726
2500 1 1724 1720 1721 1727
2501 1 1725 1720 1721 1726
2502 1 1725 1720 1721 1727
2503 1 1057 1054 1055 1060
2504 1 1057 1054 1055 1061
2505 1 1058 1054 1055 1060
2506 1 1058 1054 1055 1061
2507 1 1059 1054 1055 1060
2508 1 1059 1054 1055 1061
2509 3 1054 1055 1056 1062
2510 2 1056 1055 1054 1057
2511 2 1056 1055 1054 1058
2512 2 1056 1055 1054 1059
2513 4 1060 1055 1056 1062
2514 4 1061 1055 1056 1062
2515 3 1720 1721 1722 1728
2516 2 1722 1721 1720 1723
2517 2 1722 1721 1720 1724
2518 2 1722 1721 1720 1725
2519 4 1726 1721 1722 1728
2520 4 1727 1721 1722 1728
2521 1 265 262 263 268
2522 1 265 262 263 269
2523 1 266 262 263 268
2524 1 266 262 263 269
2525 1 267 262 263 268
2526 1 267 262 263 269
2527 3 1945 1946 1947 1953
2528 2 1947 1946 1945 1948
2529 2 1947 1946 1945 1949
2530 2 1947 1946 1945 1950
2531 4 1951 1946 1947 1953
2532 4 1952 1946 1947 1953
2533 1 292 289 290 295
2534 1 292 289 290 296
2535 1 293 289 290 295
2536 1 293 289 290 296
2537 1 294 289 290 295
2538 1 294 289 290 296
2539 3 289 290 291 297
2540 2 291 290 289 292
2541 2 291 290 289 293
2542 2 291 290 289 294
2543 4 295 290 291 297
2544 4 296 290 291 297
2545 3 469 470 471 477
2546 2 471 470 469 472
2547 2 471 470 469 473
2548 2 471 470 469 474
2549 4 475 470 471 477
2550 4 476 470 471 477
2551 1 517 514 515 520
2552 1 517 514 515 521
2553 1 518 514 515 520
2554 1 518 514 515 521
2555 1 519 514 515 520
2556 1 519 514 515 521
2557 3 514 515 516 522
2558 2 516 515 514 517
2559 2 516 515 514 518
2560 2 516 515 514 519
2561 4 520 515 516 522
2562 4 521 515 516 522
2563 1 733 730 731 736
2564 1 733 730 731 737
2565 1 734 730 731 736
2566 1 734 730 731 737
2567 1 735 730 731 736
2568 1 735 730 731 737
2569 3 604 605 606 612
2570 2 606 605 604 607
2571 2 606 605 604 608
2572 2 606 605 604 609
2573 4 610 605 606 612
2574 4 611 605 606 612
2575 1 2065 2062 2063 2068
2576 1 2065 2062 2063 2069
2577 1 2066 2062 2063 2068
2578 1 2066 2062 2063 2069
2579 1 2067 2062 2063 2068
2580 1 2067 2062 2063 2069
2581 3 1036 1037 1038 1044
2582 2 1038 1037 1036 1039
2583 2 1038 1037 1036 1040
2584 2 1038 1037 1036 1041
2585 4 1042 1037 1038 1044
2586 4 1043 1037 1038 1044
2587 3 1180 1181 1182 1188
2588 2 1182 1181 1180 1183
2589 2 1182 1181 1180 1184
2590 2 1182 1181 1180 1185
2591 4 1186 1181 1182 1188
2592 4 1187 1181 1182 1188
2593 1 1633 1630 1631 1636
2594 1 1633 1630 1631 1637
2595 1 1634 1630 1631 1636
2596 1 1634 1630 1631 1637
2597 1 1635 1630 1631 1636
2598 1 1635 1630 1631 1637
2599 3 1630 1631 1632 1638
2600 2 1632 1631 1630 1633
2601 2 1632 1631 1630 1634
2602 2 1632 1631 1630 1635
2603 4 1636 1631 1632 1638
2604 4 1637 1631 1632 1638
2605 3 1783 1784 1785 1791
2606 2 1785 1784 1783 1786
2607 2 1785 1784 1783 1787
2608 2 1785 1784 1783 1788
2609 4 1789 1784 1785 1791
2610 4 1790 1784 1785 1791
2611 1 2200 2197 2198 2203
2612 1 2200 2197 2198 2204
2613 1 2201 2197 2198 2203
2614 1 2201 2197 2198 2204
2615 1 2202 2197 2198 2203
2616 1 2202 2197 2198 2204
2617 3 2197 2198 2199 2205
2618 2 2199 2198 2197 2200
2619 2 2199 2198 2197 2201
2620 2 2199 2198 2197 2202
2621 4 2203 2198 2199 2205
2622 4 2204 2198 2199 2205
2623 1 1183 1180 1181 1186
2624 1 1183 1180 1181 1187
2625 1 1184 1180 1181 1186
2626 1 1184 1180 1181 1187
2627 1 1185 1180 1181 1186
2628 1 1185 1180 1181 1187
2629 1 1885 1882 1883 1888
2630 1 1885 1882 1883 1889
2631 1 1886 1882 1883 1888
2632 1 1886 1882 1883 1889
2633 1 1887 1882 1883 1888
2634 1 1887 1882 1883 1889
2635 1 985 982 983 988
2636 1 985 982 983 989
2637 1 986 982 983 988
2638 1 986 982 983 989
2639 1 987 982 983 988
2640 1 987 982 983 989
2641 3 982 983 984 990
2642 2 984 983 982 985
2643 2 984 983 982 986
2644 2 984 983 982 987
2645 4 988 983 984 990
2646 4 989 983 984 990
2647 1 1543 1540 1541 1546
2648 1 1543 1540 1541 1547
2649 1 1544 1540 1541 1546
2650 1 1544 1540 1541 1547
2651 1 1545 1540 1541 1546
2652 1 1545 1540 1541 1547
2653 3 1540 1541 1542 1548
2654 2 1542 1541 1540 1543
2655 2 1542 1541 1540 1544
2656 2 1542 1541 1540 1545
2657 4 1546 1541 1542 1548
2658 4 1547 1541 1542 1548
2659 1 1786 1783 1784 1789
2660 1 1786 1783 1784 1790
2661 1 1787 1783 1784 1789
2662 1 1787 1783 1784 1790
2663 1 1788 1783 1784 1789
2664 1 1788 1783 1784 1790
2665 1 2236 2233 2234 2239
2666 1 2236 2233 2234 2240
2667 1 2237 2233 2234 2239
2668 1 2237 2233 2234 2240
2669 1 2238 2233 2234 2239
2670 1 2238 2233 2234 2240
2671 1 1975 1972 1973 1978
2672 1 1975 1972 1973 1979
2673 1 1976 1972 1973 1978
2674 1 1976 1972 1973 1979
2675 1 1977 1972 1973 1978
2676 1 1977 1972 1973 1979
2677 3 1972 1973 1974 1980
2678 2 1974 1973 1972 1975
2679 2 1974 1973 1972 1976
2680 2 1974 1973 1972 1977
2681 4 1978 1973 1974 1980
2682 4 1979 1973 1974 1980
2683 1 976 973 974 979
2684 1 976 973 974 980
2685 1 977 973 974 979
2686 1 977 973 974 980
2687 1 978 973 974 979
2688 1 978 973 974 980
2689 3 973 974 975 981
2690 2 975 974 973 976
2691 2 975 974 973 977
2692 2 975 974 973 978
2693 4 979 974 975 981
2694 4 980 974 975 981
2695 3 1882 1883 1884 1890
2696 2 1884 1883 1882 1885
2697 2 1884 1883 1882 1886
2698 2 1884 1883 1882 1887
2699 4 1888 1883 1884 1890
2700 4 1889 1883 1884 1890
2701 1 1489 1486 1487 1492
2702 1 1489 1486 1487 1493
2703 1 1490 1486 1487 1492
2704 1 1490 1486 1487 1493
2705 1 1491 1486 1487 1492
2706 1 1491 1486 1487 1493
2707 3 1486 1487 1488 1494
2708 2 1488 1487 1486 1489
2709 2 1488 1487 1486 1490
2710 2 1488 1487 1486 1491
2711 4 1492 1487 1488 1494
2712 4 1493 1487 1488 1494
2713 3 2233 2234 2235 2241
2714 2 2235 2234 2233 2236
2715 2 2235 2234 2233 2237
2716 2 2235 2234 2233 2238
2717 4 2239 2234 2235 2241
2718 4 2240 2234 2235 2241
2719 1 2020 2017 2018 2023
2720 1 2020 2017 2018 2024
2721 1 2021 2017 2018 2023
2722 1 2021 2017 2018 2024
2723 1 2022 2017 2018 2023
2724 1 2022 2017 2018 2024
2725 3 2017 2018 2019 2025
2726 2 2019 2018 2017 2020
2727 2 2019 2018 2017 2021
2728 2 2019 2018 2017 2022
2729 4 2023 2018 2019 2025
2730 4 2024 2018 2019 2025
2731 1 2101 2098 2099 2104
2732 1 2101 2098 2099 2105
2733 1 2102 2098 2099 2104
2734 1 2102 2098 2099 2105
2735 1 2103 2098 2099 2104
2736 1 2103 2098 2099 2105
2737 3 2098 2099 2100 2106
2738 2 2100 2099 2098 2101
2739 2 2100 2099 2098 2102
2740 2 2100 2099 2098 2103
2741 4 2104 2099 2100 2106
2742 4 2105 2099 2100 2106
2743 3 2062 2063 2064 2070
2744 2 2064 2063 2062 2065
2745 2 2064 2063 2062 2066
2746 2 2064 2063 2062 2067
2747 4 2068 2063 2064 2070
2748 4 2069 2063 2064 2070
2749 1 67 64 65 70
2750 1 67 64 65 71
2751 1 68 64 65 70
2752 1 68 64 65 71
2753 1 69 64 65 70
2754 1 69 64 65 71
2755 3 64 65 66 72
2756 2 66 65 64 67
2757 2 66 65 64 68
2758 2 66 65 64 69
2759 4 70 65 66 72
2760 4 71 65 66 72
2761 3 262 263 264 270
2762 2 264 263 262 265
2763 2 264 263 262 266
2764 2 264 263 262 267
2765 4 268 263 264 270
2766 4 269 263 264 270
2767 1 949 946 947 952
2768 1 949 946 947 953
2769 1 950 946 947 952
2770 1 950 946 947 953
2771 1 951 946 947 952
2772 1 951 946 947 953
2773 3 1018 1019 1020 1026
2774 2 1020 1019 1018 1021
2775 2 1020 1019 1018 1022
2776 2 1020 1019 1018 1023
2777 4 1024 1019 1020 1026
2778 4 1025 1019 1020 1026
2779 1 1462 1459 1460 1465
2780 1 1462 1459 1460 1466
2781 1 1463 1459 1460 1465
2782 1 1463 1459 1460 1466
2783 1 1464 1459 1460 1465
2784 1 1464 1459 1460 1466
2785 3 1459 1460 1461 1467
2786 2 1461 1460 1459 1462
2787 2 1461 1460 1459 1463
2788 2 1461 1460 1459 1464
2789 4 1465 1460 1461 1467
2790 4 1466 1460 1461 1467
2791 1 310 307 308 313
2792 1 310 307 308 314
2793 1 311 307 308 313
2794 1 311 307 308 314
2795 1 312 307 308 313
2796 1 312 307 308 314
2797 1 1039 1036 1037 1042
2798 1 1039 1036 1037 1043
2799 1 1040 1036 1037 1042
2800 1 1040 1036 1037 1043
2801 1 1041 1036 1037 1042
2802 1 1041 1036 1037 1043
2803 1 472 469 470 475
2804 1 472 469 470 476
2805 1 473 469 470 475
2806 1 473 469 470 476
2807 1 474 469 470 475
2808 1 474 469 470 476
2809 1 103 100 101 106
2810 1 103 100 101 107
2811 1 104 100 101 106
2812 1 104 100 101 107
2813 1 105 100 101 106
2814 1 105 100 101 107
2815 1 1093 1090 1091 1096
2816 1 1093 1090 1091 1097
2817 1 1094 1090 1091 1096
2818 1 1094 1090 1091 1097
2819 1 1095 1090 1091 1096
2820 1 1095 1090 1091 1097
2821 1 1984 1981 1982 1987
2822 1 1984 1981 1982 1988
2823 1 1985 1981 1982 1987
2824 1 1985 1981 1982 1988
2825 1 1986 1981 1982 1987
2826 1 1986 1981 1982 1988
2827 1 58 55 56 61
2828 1 58 55 56 62
2829 1 59 55 56 61
2830 1 59 55 56 62
2831 1 60 55 56 61
2832 1 60 55 56 62
2833 3 55 56 57 63
2834 2 57 56 55 58
2835 2 57 56 55 59
2836 2 57 56 55 60
2837 4 61 56 57 63
2838 4 62 56 57 63
2839 1 148 145 146 151
2840 1 148 145 146 152
2841 1 149 145 146 151
2842 1 149 145 146 152
2843 1 150 145 146 151
2844 1 150 145 146 152
2845 1 418 415 416 421
2846 1 418 415 416 422
2847 1 419 415 416 421
2848 1 419 415 416 422
2849 1 420 415 416 421
2850 1 420 415 416 422
2851 1 760 757 758 763
2852 1 760 757 758 764
2853 1 761 757 758 763
2854 1 761 757 758 764
2855 1 762 757 758 763
2856 1 762 757 758 764
2857 3 757 758 759 765
2858 2 759 758 757 760
2859 2 759 758 757 761
2860 2 759 758 757 762
2861 4 763 758 759 765
2862 4 764 758 759 765
2863 1 1318 1315 1316 1321
2864 1 1318 1315 1316 1322
2865 1 1319 1315 1316 1321
2866 1 1319 1315 1316 1322
2867 1 1320 1315 1316 1321
2868 1 1320 1315 1316 1322
2869 3 1315 1316 1317 1323
2870 2 1317 1316 1315 1318
2871 2 1317 1316 1315 1319
2872 2 1317 1316 1315 1320
2873 4 1321 1316 1317 1323
2874 4 1322 1316 1317 1323
2875 1 1597 1594 1595 1600
2876 1 1597 1594 1595 1601
2877 1 1598 1594 1595 1600
2878 1 1598 1594 1595 1601
2879 1 1599 1594 1595 1600
2880 1 1599 1594 1595 1601
2881 3 1594 1595 1596 1602
2882 2 1596 1595 1594 1597
2883 2 1596 1595 1594 1598
2884 2 1596 1595 1594 1599
2885 4 1600 1595 1596 1602
2886 4 1601 1595 1596 1602
2887 3 1342 1343 1344 1350
2888 2 1344 1343 1342 1345
2889 2 1344 1343 1342 1346
2890 2 1344 1343 1342 1347
2891 4 1348 1343 1344 1350
2892 4 1349 1343 1344 1350
2893 1 1930 1927 1928 1933
2894 1 1930 1927 1928 1934
2895 1 1931 1927 1928 1933
2896 1 1931 1927 1928 1934
2897 1 1932 1927 1928 1933
2898 1 1932 1927 1928 1934
2899 3 1927 1928 1929 1935
2900 2 1929 1928 1927 1930
2901 2 1929 1928 1927 1931
2902 2 1929 1928 1927 1932
2903 4 1933 1928 1929 1935
2904 4 1934 1928 1929 1935
2905 3 2080 2081 2082 2088
2906 2 2082 2081 2080 2083
2907 2 2082 2081 2080 2084
2908 2 2082 2081 2080 2085
2909 4 2086 2081 2082 2088
2910 4 2087 2081 2082 2088
2911 3 784 785 786 792
2912 2 786 785 784 787
2913 2 786 785 784 788
2914 2 786 785 784 789
2915 4 790 785 786 792
2916 4 791 785 786 792
2917 3 307 308 309 315
2918 2 309 308 307 310
2919 2 309 308 307 311
2920 2 309 308 307 312
2921 4 313 308 309 315
2922 4 314 308 309 315
2923 3 415 416 417 423
2924 2 417 416 415 418
2925 2 417 416 415 419
2926 2 417 416 415 420
2927 4 421 416 417 423
2928 4 422 416 417 423
2929 1 787 784 785 790
2930 1 787 784 785 791
2931 1 788 784 785 790
2932 1 788 784 785 791
2933 1 789 784 785 790
2934 1 789 784 785 791
2935 1 1345 1342 1343 1348
2936 1 1345 1342 1343 1349
2937 1 1346 1342 1343 1348
2938 1 1346 1342 1343 1349
2939 1 1347 1342 1343 1348
2940 1 1347 1342 1343 1349
2941 1 958 955 956 961
2942 1 958 955 956 962
2943 1 959 955 956 961
2944 1 959 955 956 962
2945 1 960 955 956 961
2946 1 960 955 956 962
2947 3 955 956 957 963
2948 2 957 956 955 958
2949 2 957 956 955 959
2950 2 957 956 955 960
2951 4 961 956 957 963
2952 4 962 956 957 963
2953 3 46 47 48 54
2954 2 48 47 46 49
2955 2 48 47 46 50
2956 2 48 47 46 51
2957 4 52 47 48 54
2958 4 53 47 48 54
2959 3 145 146 147 153
2960 2 147 146 145 148
2961 2 147 146 145 149
2962 2 147 146 145 150
2963 4 151 146 147 153
2964 4 152 146 147 153
2965 1 2083 2080 2081 2086
2966 1 2083 2080 2081 2087
2967 1 2084 2080 2081 2086
2968 1 2084 2080 2081 2087
2969 1 2085 2080 2081 2086
2970 1 2085 2080 2081 2087
2971 1 1552 1549 1550 1555
2972 1 1552 1549 1550 1556
2973 1 1553 1549 1550 1555
2974 1 1553 1549 1550 1556
2975 1 1554 1549 1550 1555
2976 1 1554 1549 1550 1556
2977 3 1549 1550 1551 1557
2978 2 1551 1550 1549 1552
2979 2 1551 1550 1549 1553
2980 2 1551 1550 1549 1554
2981 4 1555 1550 1551 1557
2982 4 1556 1550 1551 1557
2983 1 1606 1603 1604 1609
2984 1 1606 1603 1604 1610
2985 1 1607 1603 1604 1609
2986 1 1607 1603 1604 1610
2987 1 1608 1603 1604 1609
2988 1 1608 1603 1604 1610
2989 3 1603 1604 1605 1611
2990 2 1605 1604 1603 1606
2991 2 1605 1604 1603 1607
2992 2 1605 1604 1603 1608
2993 4 1609 1604 1605 1611
2994 4 1610 1604 1605 1611
2995 1 1444 1441 1442 1447
2996 1 1444 1441 1442 1448
2997 1 1445 1441 1442 1447
2998 1 1445 1441 1442 1448
2999 1 1446 1441 1442 1447
3000 1 1446 1441 1442 1448
